[Molden Format]
[N_Atoms]
                    2
[Atoms] (AU)
O1          1      8           0.00000000      0.00000000     -1.14094105
O2          2      8           0.00000000      0.00000000      1.14094105
[5D]
[Charge] (Mulliken)
  0.50000000000048406     
  0.49999999999937916     
[GTO] (AU)
   1
   s   5
  2.266176779E+03 -5.389350392E-03
  3.408701019E+02 -4.023472139E-02
  7.736313517E+01 -1.800818421E-01
  2.147964494E+01 -4.682885766E-01
  6.658943312E+00 -4.469261716E-01
   s   1
  8.097597567E-01  1.000000000E+00
   s   1
  2.553077223E-01  1.000000000E+00
   p   3
  1.772150432E+01  6.263024876E-02
  3.863550544E+00  3.333113848E-01
  1.048092088E+00  7.414863831E-01
   p   1
  2.764154441E-01  1.000000000E+00
   d   1
  1.200000000E+00  1.000000000E+00
 
   2
   s   5
  2.266176779E+03 -5.389350392E-03
  3.408701019E+02 -4.023472139E-02
  7.736313517E+01 -1.800818421E-01
  2.147964494E+01 -4.682885766E-01
  6.658943312E+00 -4.469261716E-01
   s   1
  8.097597567E-01  1.000000000E+00
   s   1
  2.553077223E-01  1.000000000E+00
   p   3
  1.772150432E+01  6.263024876E-02
  3.863550544E+00  3.333113848E-01
  1.048092088E+00  7.414863831E-01
   p   1
  2.764154441E-01  1.000000000E+00
   d   1
  1.200000000E+00  1.000000000E+00
 
[MO]
Sym=     1a  
Ene=   -21.1900
Spin= Alpha
Occup=    2.00000
   1         0.70166837
   2        -0.01942422
   3         0.00685100
   4        -0.00000000
   5        -0.00000000
   6        -0.00033551
   7         0.00000000
   8         0.00000000
   9         0.00110976
  10         0.00092663
  11        -0.00000000
  12        -0.00000000
  13         0.00000000
  14         0.00000000
  15         0.70166837
  16        -0.01942422
  17         0.00685100
  18        -0.00000000
  19        -0.00000000
  20         0.00033551
  21         0.00000000
  22        -0.00000000
  23        -0.00110976
  24         0.00092663
  25         0.00000000
  26         0.00000000
  27         0.00000000
  28         0.00000000
Sym=     2a  
Ene=   -21.1890
Spin= Alpha
Occup=    2.00000
   1        -0.70185005
   2         0.01971575
   3        -0.01561590
   4         0.00000000
   5         0.00000000
   6         0.00287105
   7        -0.00000000
   8        -0.00000000
   9        -0.00372115
  10         0.00112835
  11         0.00000000
  12         0.00000000
  13        -0.00000000
  14        -0.00000000
  15         0.70185005
  16        -0.01971575
  17         0.01561590
  18        -0.00000000
  19        -0.00000000
  20         0.00287105
  21         0.00000000
  22         0.00000000
  23        -0.00372115
  24        -0.00112835
  25         0.00000000
  26         0.00000000
  27         0.00000000
  28         0.00000000
Sym=     3a  
Ene=    -2.0874
Spin= Alpha
Occup=    1.99140
   1         0.20543193
   2         0.44325310
   3         0.16560600
   4        -0.00000000
   5        -0.00000000
   6         0.17352265
   7        -0.00000000
   8        -0.00000000
   9         0.04376858
  10         0.02599010
  11         0.00000000
  12         0.00000000
  13        -0.00000000
  14        -0.00000000
  15         0.20543193
  16         0.44325310
  17         0.16560600
  18        -0.00000000
  19        -0.00000000
  20        -0.17352265
  21        -0.00000000
  22        -0.00000000
  23        -0.04376858
  24         0.02599010
  25        -0.00000000
  26        -0.00000000
  27        -0.00000000
  28        -0.00000000
Sym=     4a  
Ene=    -1.4884
Spin= Alpha
Occup=    1.98351
   1        -0.22269549
   2        -0.50170023
   3        -0.37379275
   4         0.00000000
   5         0.00000000
   6         0.12955722
   7         0.00000000
   8         0.00000000
   9         0.01632108
  10         0.00779362
  11         0.00000000
  12         0.00000000
  13        -0.00000000
  14        -0.00000000
  15         0.22269549
  16         0.50170023
  17         0.37379275
  18        -0.00000000
  19        -0.00000000
  20         0.12955722
  21        -0.00000000
  22        -0.00000000
  23         0.01632108
  24        -0.00779362
  25         0.00000000
  26         0.00000000
  27         0.00000000
  28         0.00000000
Sym=     5a  
Ene=    -1.0640
Spin= Alpha
Occup=    1.60708
   1        -0.00000000
   2        -0.00000000
   3        -0.00000000
   4         0.43244885
   5         0.22575462
   6         0.00000000
   7         0.21596816
   8         0.11274353
   9         0.00000000
  10         0.00000000
  11         0.03071533
  12         0.01603456
  13         0.00000000
  14         0.00000000
  15        -0.00000000
  16        -0.00000000
  17        -0.00000000
  18         0.43244885
  19         0.22575462
  20        -0.00000000
  21         0.21596816
  22         0.11274353
  23        -0.00000000
  24         0.00000000
  25        -0.03071533
  26        -0.01603456
  27         0.00000000
  28         0.00000000
Sym=     6a  
Ene=    -1.0640
Spin= Alpha
Occup=    1.60708
   1        -0.00000000
   2        -0.00000000
   3        -0.00000000
   4         0.22575459
   5        -0.43244880
   6         0.00000000
   7         0.11274355
   8        -0.21596821
   9         0.00000000
  10         0.00000000
  11         0.01603456
  12        -0.03071532
  13         0.00000000
  14        -0.00000000
  15        -0.00000000
  16        -0.00000000
  17        -0.00000000
  18         0.22575459
  19        -0.43244880
  20        -0.00000000
  21         0.11274355
  22        -0.21596821
  23        -0.00000000
  24         0.00000000
  25        -0.01603456
  26         0.03071532
  27         0.00000000
  28        -0.00000000
Sym=     7a  
Ene=    -1.0435
Spin= Alpha
Occup=    1.48409
   1         0.08032627
   2         0.17198633
   3         0.20386665
   4         0.00000000
   5         0.00000000
   6        -0.48741921
   7         0.00000000
   8         0.00000000
   9        -0.20152307
  10        -0.03136103
  11         0.00000000
  12         0.00000000
  13         0.00000001
  14         0.00000001
  15         0.08032627
  16         0.17198633
  17         0.20386665
  18         0.00000000
  19         0.00000000
  20         0.48741921
  21         0.00000000
  22         0.00000000
  23         0.20152307
  24        -0.03136103
  25        -0.00000000
  26        -0.00000000
  27         0.00000001
  28         0.00000001
Sym=     8a  
Ene=    -0.6723
Spin= Alpha
Occup=    1.14236
   1        -0.00000000
   2        -0.00000000
   3        -0.00000000
   4        -0.50426029
   5        -0.26015529
   6        -0.00000000
   7        -0.29959460
   8        -0.15456525
   9        -0.00000000
  10         0.00000000
  11         0.00262689
  12         0.00135525
  13        -0.00000000
  14        -0.00000000
  15         0.00000000
  16         0.00000000
  17         0.00000000
  18         0.50426029
  19         0.26015529
  20        -0.00000000
  21         0.29959460
  22         0.15456525
  23        -0.00000000
  24        -0.00000000
  25         0.00262689
  26         0.00135525
  27         0.00000000
  28         0.00000000
Sym=     9a  
Ene=    -0.6723
Spin= Alpha
Occup=    1.14236
   1        -0.00000000
   2        -0.00000000
   3        -0.00000000
   4        -0.26015523
   5         0.50426017
   6        -0.00000000
   7        -0.15456537
   8         0.29959482
   9        -0.00000000
  10         0.00000000
  11         0.00135525
  12        -0.00262690
  13        -0.00000000
  14         0.00000000
  15         0.00000000
  16         0.00000000
  17         0.00000000
  18         0.26015523
  19        -0.50426017
  20        -0.00000000
  21         0.15456537
  22        -0.29959482
  23        -0.00000000
  24        -0.00000000
  25         0.00135525
  26        -0.00262690
  27         0.00000000
  28        -0.00000000
Sym=    10a  
Ene=     0.1610
Spin= Alpha
Occup=    0.04212
   1         0.11104982
   2         0.30769375
   3         0.31432904
   4        -0.00000000
   5        -0.00000000
   6         0.72147510
   7        -0.00000000
   8        -0.00000000
   9         0.28785225
  10        -0.02929720
  11         0.00000000
  12         0.00000000
  13         0.00000002
  14         0.00000003
  15        -0.11104982
  16        -0.30769375
  17        -0.31432904
  18         0.00000000
  19         0.00000000
  20         0.72147510
  21         0.00000000
  22         0.00000000
  23         0.28785225
  24         0.02929720
  25         0.00000000
  26         0.00000000
  27        -0.00000002
  28        -0.00000003
Sym=    11a  
Ene=     0.5772
Spin= Alpha
Occup=    0.00000
   1         0.20870210
   2         1.14390370
   3        -0.99309469
   4         0.00000000
   5         0.00000000
   6        -0.05230083
   7        -0.00000000
   8        -0.00000000
   9        -0.01008635
  10         0.06745465
  11         0.00000000
  12         0.00000000
  13        -0.00000000
  14        -0.00000000
  15         0.20870210
  16         1.14390370
  17        -0.99309469
  18         0.00000000
  19         0.00000000
  20         0.05230083
  21        -0.00000000
  22        -0.00000000
  23         0.01008635
  24         0.06745465
  25        -0.00000000
  26        -0.00000000
  27        -0.00000000
  28        -0.00000000
Sym=    12a  
Ene=     0.6395
Spin= Alpha
Occup=    0.00000
   1        -0.12208949
   2        -0.49955165
   3        -0.78404441
   4        -0.00000000
   5        -0.00000000
   6         0.40954682
   7         0.00000000
   8         0.00000000
   9        -1.48874583
  10        -0.03917829
  11         0.00000000
  12         0.00000000
  13         0.00000000
  14         0.00000000
  15         0.12208949
  16         0.49955165
  17         0.78404441
  18         0.00000000
  19         0.00000000
  20         0.40954682
  21        -0.00000000
  22        -0.00000000
  23        -1.48874583
  24         0.03917829
  25         0.00000000
  26         0.00000000
  27        -0.00000000
  28        -0.00000000
Sym=    13a  
Ene=     0.7077
Spin= Alpha
Occup=    0.00000
   1        -0.00000000
   2        -0.00000000
   3         0.00000000
   4         0.29153388
   5        -0.58166852
   6         0.00000000
   7        -0.28703202
   8         0.57268642
   9        -0.00000000
  10        -0.00000000
  11         0.01605178
  12        -0.03202652
  13         0.00000000
  14        -0.00000000
  15        -0.00000000
  16        -0.00000000
  17         0.00000000
  18         0.29153388
  19        -0.58166852
  20        -0.00000000
  21        -0.28703202
  22         0.57268642
  23         0.00000000
  24        -0.00000000
  25        -0.01605178
  26         0.03202652
  27         0.00000000
  28        -0.00000000
Sym=    14a  
Ene=     0.7077
Spin= Alpha
Occup=    0.00000
   1         0.00000000
   2         0.00000000
   3        -0.00000000
   4        -0.58166848
   5        -0.29153386
   6        -0.00000000
   7         0.57268644
   8         0.28703203
   9         0.00000000
  10         0.00000000
  11        -0.03202653
  12        -0.01605178
  13        -0.00000000
  14        -0.00000000
  15         0.00000000
  16         0.00000000
  17        -0.00000000
  18        -0.58166848
  19        -0.29153386
  20         0.00000000
  21         0.57268644
  22         0.28703203
  23        -0.00000000
  24         0.00000000
  25         0.03202653
  26         0.01605178
  27        -0.00000000
  28        -0.00000000
Sym=    15a  
Ene=     0.7768
Spin= Alpha
Occup=    0.00000
   1        -0.00826048
   2         0.08634857
   3         0.16725415
   4        -0.00000000
   5        -0.00000000
   6         0.56462956
   7         0.00000000
   8         0.00000000
   9        -0.82877722
  10         0.11724795
  11        -0.00000000
  12        -0.00000000
  13        -0.00000001
  14        -0.00000001
  15        -0.00826048
  16         0.08634857
  17         0.16725415
  18        -0.00000000
  19        -0.00000000
  20        -0.56462956
  21         0.00000000
  22         0.00000000
  23         0.82877722
  24         0.11724795
  25         0.00000000
  26         0.00000000
  27        -0.00000001
  28        -0.00000001
Sym=    16a  
Ene=     0.8298
Spin= Alpha
Occup=    0.00000
   1         0.00000000
   2         0.00000000
   3        -0.00000000
   4         0.53554042
   5         0.27918024
   6        -0.00000000
   7        -0.95518536
   8        -0.49794351
   9        -0.00000000
  10        -0.00000000
  11         0.01337183
  12         0.00697081
  13         0.00000000
  14         0.00000000
  15        -0.00000000
  16        -0.00000000
  17         0.00000000
  18        -0.53554042
  19        -0.27918024
  20        -0.00000000
  21         0.95518536
  22         0.49794351
  23        -0.00000000
  24         0.00000000
  25         0.01337183
  26         0.00697081
  27        -0.00000000
  28        -0.00000000
Sym=    17a  
Ene=     0.8298
Spin= Alpha
Occup=    0.00000
   1        -0.00000000
   2        -0.00000000
   3         0.00000000
   4        -0.27918030
   5         0.53554054
   6         0.00000000
   7         0.49794347
   8        -0.95518529
   9         0.00000000
  10         0.00000000
  11        -0.00697081
  12         0.01337184
  13        -0.00000000
  14         0.00000000
  15         0.00000000
  16         0.00000000
  17        -0.00000000
  18         0.27918030
  19        -0.53554054
  20         0.00000000
  21        -0.49794347
  22         0.95518529
  23         0.00000000
  24        -0.00000000
  25        -0.00697081
  26         0.01337184
  27         0.00000000
  28        -0.00000000
Sym=    18a  
Ene=     1.0243
Spin= Alpha
Occup=    0.00000
   1        -0.17199908
   2        -1.26548251
   3         4.21651743
   4         0.00000000
   5         0.00000000
   6        -0.12439220
   7        -0.00000000
   8        -0.00000000
   9         2.32874871
  10         0.03777312
  11        -0.00000000
  12        -0.00000000
  13         0.00000000
  14         0.00000000
  15         0.17199908
  16         1.26548251
  17        -4.21651743
  18        -0.00000000
  19        -0.00000000
  20        -0.12439220
  21         0.00000000
  22         0.00000000
  23         2.32874871
  24        -0.03777312
  25        -0.00000000
  26        -0.00000000
  27        -0.00000000
  28        -0.00000000
Sym=    19a  
Ene=     1.9707
Spin= Alpha
Occup=    0.00000
   1        -0.00000000
   2        -0.00000000
   3         0.00000000
   4         0.07978474
   5         0.04136780
   6         0.00000000
   7         0.02928921
   8         0.01518624
   9         0.00000000
  10         0.00000000
  11        -0.56823730
  12        -0.29462689
  13         0.00000000
  14         0.00000000
  15        -0.00000000
  16        -0.00000000
  17         0.00000000
  18         0.07978474
  19         0.04136780
  20        -0.00000000
  21         0.02928921
  22         0.01518624
  23        -0.00000000
  24         0.00000000
  25         0.56823730
  26         0.29462689
  27         0.00000000
  28         0.00000000
Sym=    20a  
Ene=     1.9707
Spin= Alpha
Occup=    0.00000
   1         0.00000000
   2         0.00000000
   3        -0.00000000
   4        -0.04136780
   5         0.07978472
   6        -0.00000000
   7        -0.01518625
   8         0.02928922
   9        -0.00000000
  10        -0.00000000
  11         0.29462689
  12        -0.56823730
  13        -0.00000000
  14         0.00000000
  15         0.00000000
  16         0.00000000
  17        -0.00000000
  18        -0.04136780
  19         0.07978472
  20         0.00000000
  21        -0.01518625
  22         0.02928922
  23         0.00000000
  24        -0.00000000
  25        -0.29462689
  26         0.56823730
  27        -0.00000000
  28         0.00000000
Sym=    21a  
Ene=     2.2681
Spin= Alpha
Occup=    0.00000
   1         0.00000000
   2         0.00000004
   3        -0.00000002
   4        -0.00000000
   5        -0.00000000
   6         0.00000005
   7         0.00000000
   8         0.00000000
   9        -0.00000004
  10        -0.00000006
  11         0.00000000
  12         0.00000000
  13         0.34837762
  14         0.59797397
  15         0.00000000
  16         0.00000004
  17        -0.00000002
  18        -0.00000000
  19        -0.00000000
  20        -0.00000005
  21         0.00000000
  22         0.00000000
  23         0.00000004
  24        -0.00000006
  25        -0.00000000
  26        -0.00000000
  27         0.34837762
  28         0.59797397
Sym=    22a  
Ene=     2.2681
Spin= Alpha
Occup=    0.00000
   1        -0.00000000
   2        -0.00000000
   3         0.00000000
   4         0.00000000
   5        -0.00000000
   6        -0.00000000
   7         0.00000000
   8        -0.00000000
   9         0.00000000
  10         0.00000000
  11        -0.00000000
  12         0.00000000
  13        -0.59797397
  14         0.34837762
  15        -0.00000000
  16        -0.00000000
  17         0.00000000
  18         0.00000000
  19        -0.00000000
  20         0.00000000
  21         0.00000000
  22        -0.00000000
  23        -0.00000000
  24         0.00000000
  25         0.00000000
  26        -0.00000000
  27        -0.59797397
  28         0.34837762
Sym=    23a  
Ene=     2.5821
Spin= Alpha
Occup=    0.00000
   1        -0.00000000
   2         0.00000000
   3        -0.00000002
   4        -0.00000000
   5         0.00000000
   6        -0.00000000
   7        -0.00000000
   8         0.00000000
   9        -0.00000001
  10        -0.00000001
  11        -0.00000000
  12         0.00000000
  13         0.63695371
  14        -0.34247257
  15         0.00000000
  16        -0.00000000
  17         0.00000002
  18         0.00000000
  19        -0.00000000
  20        -0.00000000
  21         0.00000000
  22        -0.00000000
  23        -0.00000001
  24         0.00000001
  25        -0.00000000
  26         0.00000000
  27        -0.63695371
  28         0.34247257
Sym=    24a  
Ene=     2.5821
Spin= Alpha
Occup=    0.00000
   1         0.00000001
   2         0.00000000
   3         0.00000013
   4         0.00000000
   5         0.00000000
   6         0.00000005
   7         0.00000000
   8         0.00000000
   9         0.00000009
  10         0.00000004
  11         0.00000000
  12         0.00000000
  13        -0.34247257
  14        -0.63695371
  15        -0.00000001
  16        -0.00000000
  17        -0.00000013
  18        -0.00000000
  19        -0.00000000
  20         0.00000005
  21        -0.00000000
  22        -0.00000000
  23         0.00000009
  24        -0.00000004
  25         0.00000000
  26         0.00000000
  27         0.34247257
  28         0.63695371
Sym=    25a  
Ene=     2.7034
Spin= Alpha
Occup=    0.00000
   1        -0.07283179
   2        -0.41831943
   3         0.18273206
   4         0.00000000
   5         0.00000000
   6        -0.34619535
   7        -0.00000000
   8        -0.00000000
   9         0.30802348
  10         0.65195201
  11         0.00000000
  12         0.00000000
  13         0.00000004
  14         0.00000005
  15        -0.07283179
  16        -0.41831943
  17         0.18273206
  18         0.00000000
  19         0.00000000
  20         0.34619535
  21        -0.00000000
  22        -0.00000000
  23        -0.30802348
  24         0.65195201
  25        -0.00000000
  26        -0.00000000
  27         0.00000004
  28         0.00000005
Sym=    26a  
Ene=     3.2421
Spin= Alpha
Occup=    0.00000
   1        -0.00000000
   2        -0.00000000
   3        -0.00000000
   4        -0.01234810
   5        -0.00642060
   6        -0.00000000
   7         0.24623926
   8         0.12803613
   9         0.00000000
  10         0.00000000
  11         0.73839530
  12         0.38394073
  13         0.00000000
  14         0.00000000
  15         0.00000000
  16         0.00000000
  17         0.00000000
  18         0.01234810
  19         0.00642060
  20        -0.00000000
  21        -0.24623926
  22        -0.12803613
  23         0.00000000
  24        -0.00000000
  25         0.73839530
  26         0.38394073
  27        -0.00000000
  28        -0.00000000
Sym=    27a  
Ene=     3.2421
Spin= Alpha
Occup=    0.00000
   1         0.00000000
   2         0.00000000
   3         0.00000000
   4         0.00642060
   5        -0.01234810
   6         0.00000000
   7        -0.12803614
   8         0.24623927
   9        -0.00000000
  10        -0.00000000
  11        -0.38394073
  12         0.73839530
  13        -0.00000000
  14         0.00000000
  15        -0.00000000
  16        -0.00000000
  17        -0.00000000
  18        -0.00642060
  19         0.01234810
  20         0.00000000
  21         0.12803614
  22        -0.24623927
  23        -0.00000000
  24         0.00000000
  25        -0.38394073
  26         0.73839530
  27         0.00000000
  28        -0.00000000
Sym=    28a  
Ene=     3.7803
Spin= Alpha
Occup=    0.00000
   1         0.03935100
   2        -0.14743611
   3         2.13592733
   4         0.00000000
   5         0.00000000
   6         0.27908204
   7         0.00000000
   8         0.00000000
   9         1.38752583
  10         1.03484028
  11        -0.00000000
  12        -0.00000000
  13         0.00000002
  14         0.00000003
  15        -0.03935100
  16         0.14743611
  17        -2.13592733
  18        -0.00000000
  19        -0.00000000
  20         0.27908204
  21        -0.00000000
  22        -0.00000000
  23         1.38752583
  24        -1.03484028
  25        -0.00000000
  26        -0.00000000
  27        -0.00000002
  28        -0.00000003
