[Molden Format]
[N_Atoms]
                    9
[Atoms] (AU)
S1          1     16           0.57474833      3.29542375     -0.27104877
C2          2      6           2.49643056      0.63207559     -0.18408179
C3          3      6           1.10287393     -1.53858799      0.05062573
C4          4      6          -1.55702769     -1.06538917      0.16357439
C5          5      6          -2.13233686      1.45552721      0.01235405
H6          6      1           4.53871208      0.83286608     -0.31171255
H7          7      1           1.94216763     -3.41844721      0.14063984
H8          8      1          -2.98179884     -2.54247309      0.34968101
H9          9      1          -3.98376918      2.34900480      0.04996810
[5D]
[Charge] (Mulliken)
  0.12245297116447951     
 -0.13933602873150708     
  -1.1864851692197753E-002
  -1.4789672715497026E-002
 -0.13538808354254961     
   5.7438497195417160E-002
   3.1976469136717811E-002
   3.1683837653388447E-002
   5.7826861530505425E-002
[GTO] (AU)
   1
   s  12
  1.108000000E+05  2.476349789E-04
  1.661000000E+04  1.920259836E-03
  3.781000000E+03  9.961919151E-03
  1.071000000E+03  4.029749656E-02
  3.498000000E+02  1.286039890E-01
  1.263000000E+02  3.034799741E-01
  4.926000000E+01  4.214319641E-01
  2.016000000E+01  2.307809803E-01
  5.720000000E+00  1.789709847E-02
  2.182000000E+00 -2.975159746E-03
  4.327000000E-01  8.495219276E-04
  1.570000000E-01 -3.679359686E-04
   s  12
  1.108000000E+05 -6.870389403E-05
  1.661000000E+04 -5.276809541E-04
  3.781000000E+03 -2.796709757E-03
  1.071000000E+03 -1.126509902E-02
  3.498000000E+02 -3.888339662E-02
  1.263000000E+02 -9.950249135E-02
  4.926000000E+01 -1.997399826E-01
  2.016000000E+01 -1.233599893E-01
  5.720000000E+00  5.131939554E-01
  2.182000000E+00  6.071199472E-01
  4.327000000E-01  3.967529655E-02
  1.570000000E-01 -9.468639177E-03
   s  12
  1.108000000E+05  1.990770288E-05
  1.661000000E+04  1.534830222E-04
  3.781000000E+03  8.095031173E-04
  1.071000000E+03  3.289740477E-03
  3.498000000E+02  1.129670164E-02
  1.263000000E+02  2.963850429E-02
  4.926000000E+01  5.998510869E-02
  2.016000000E+01  4.132480599E-02
  5.720000000E+00 -2.074740301E-01
  2.182000000E+00 -3.928890569E-01
  4.327000000E-01  6.328400917E-01
  1.570000000E-01  5.569240807E-01
   s   1
  1.570000000E-01  1.000000000E+00
   p   8
  3.997000000E+02  4.475409178E-03
  9.419000000E+01  3.417079372E-02
  2.975000000E+01  1.442499735E-01
  1.077000000E+01  3.539279350E-01
  4.119000000E+00  4.590849156E-01
  1.625000000E+00  2.063829621E-01
  4.726000000E-01  1.021409812E-02
  1.407000000E-01 -6.031218892E-05
   p   8
  3.997000000E+02 -1.162510528E-03
  9.419000000E+01 -8.656643933E-03
  2.975000000E+01 -3.908861776E-02
  1.077000000E+01 -9.346254246E-02
  4.119000000E+00 -1.479940672E-01
  1.625000000E+00  3.019041372E-02
  4.726000000E-01  5.615732551E-01
  1.407000000E-01  5.347762430E-01
   p   1
  1.407000000E-01  1.000000000E+00
   d   1
  4.790000000E-01  1.000000000E+00
 
   2
   s   9
  6.665000000E+03  6.920001793E-04
  1.000000000E+03  5.329001381E-03
  2.280000000E+02  2.707700701E-02
  6.471000000E+01  1.017180264E-01
  2.106000000E+01  2.747400712E-01
  7.495000000E+00  4.485641162E-01
  2.797000000E+00  2.850740738E-01
  5.215000000E-01  1.520400394E-02
  1.596000000E-01 -3.191000827E-03
   s   9
  6.665000000E+03 -1.460000642E-04
  1.000000000E+03 -1.154000508E-03
  2.280000000E+02 -5.725002519E-03
  6.471000000E+01 -2.331201026E-02
  2.106000000E+01 -6.395502813E-02
  7.495000000E+00 -1.499810660E-01
  2.797000000E+00 -1.272620560E-01
  5.215000000E-01  5.445292395E-01
  1.596000000E-01  5.804962554E-01
   s   1
  1.596000000E-01  1.000000000E+00
   p   4
  9.439000000E+00  3.810902127E-02
  2.002000000E+00  2.094801169E-01
  5.456000000E-01  5.085572839E-01
  1.517000000E-01  4.688422617E-01
   p   1
  1.517000000E-01  1.000000000E+00
   d   1
  5.500000000E-01  1.000000000E+00
 
   3
   s   9
  6.665000000E+03  6.920001793E-04
  1.000000000E+03  5.329001381E-03
  2.280000000E+02  2.707700701E-02
  6.471000000E+01  1.017180264E-01
  2.106000000E+01  2.747400712E-01
  7.495000000E+00  4.485641162E-01
  2.797000000E+00  2.850740738E-01
  5.215000000E-01  1.520400394E-02
  1.596000000E-01 -3.191000827E-03
   s   9
  6.665000000E+03 -1.460000642E-04
  1.000000000E+03 -1.154000508E-03
  2.280000000E+02 -5.725002519E-03
  6.471000000E+01 -2.331201026E-02
  2.106000000E+01 -6.395502813E-02
  7.495000000E+00 -1.499810660E-01
  2.797000000E+00 -1.272620560E-01
  5.215000000E-01  5.445292395E-01
  1.596000000E-01  5.804962554E-01
   s   1
  1.596000000E-01  1.000000000E+00
   p   4
  9.439000000E+00  3.810902127E-02
  2.002000000E+00  2.094801169E-01
  5.456000000E-01  5.085572839E-01
  1.517000000E-01  4.688422617E-01
   p   1
  1.517000000E-01  1.000000000E+00
   d   1
  5.500000000E-01  1.000000000E+00
 
   4
   s   9
  6.665000000E+03  6.920001793E-04
  1.000000000E+03  5.329001381E-03
  2.280000000E+02  2.707700701E-02
  6.471000000E+01  1.017180264E-01
  2.106000000E+01  2.747400712E-01
  7.495000000E+00  4.485641162E-01
  2.797000000E+00  2.850740738E-01
  5.215000000E-01  1.520400394E-02
  1.596000000E-01 -3.191000827E-03
   s   9
  6.665000000E+03 -1.460000642E-04
  1.000000000E+03 -1.154000508E-03
  2.280000000E+02 -5.725002519E-03
  6.471000000E+01 -2.331201026E-02
  2.106000000E+01 -6.395502813E-02
  7.495000000E+00 -1.499810660E-01
  2.797000000E+00 -1.272620560E-01
  5.215000000E-01  5.445292395E-01
  1.596000000E-01  5.804962554E-01
   s   1
  1.596000000E-01  1.000000000E+00
   p   4
  9.439000000E+00  3.810902127E-02
  2.002000000E+00  2.094801169E-01
  5.456000000E-01  5.085572839E-01
  1.517000000E-01  4.688422617E-01
   p   1
  1.517000000E-01  1.000000000E+00
   d   1
  5.500000000E-01  1.000000000E+00
 
   5
   s   9
  6.665000000E+03  6.920001793E-04
  1.000000000E+03  5.329001381E-03
  2.280000000E+02  2.707700701E-02
  6.471000000E+01  1.017180264E-01
  2.106000000E+01  2.747400712E-01
  7.495000000E+00  4.485641162E-01
  2.797000000E+00  2.850740738E-01
  5.215000000E-01  1.520400394E-02
  1.596000000E-01 -3.191000827E-03
   s   9
  6.665000000E+03 -1.460000642E-04
  1.000000000E+03 -1.154000508E-03
  2.280000000E+02 -5.725002519E-03
  6.471000000E+01 -2.331201026E-02
  2.106000000E+01 -6.395502813E-02
  7.495000000E+00 -1.499810660E-01
  2.797000000E+00 -1.272620560E-01
  5.215000000E-01  5.445292395E-01
  1.596000000E-01  5.804962554E-01
   s   1
  1.596000000E-01  1.000000000E+00
   p   4
  9.439000000E+00  3.810902127E-02
  2.002000000E+00  2.094801169E-01
  5.456000000E-01  5.085572839E-01
  1.517000000E-01  4.688422617E-01
   p   1
  1.517000000E-01  1.000000000E+00
   d   1
  5.500000000E-01  1.000000000E+00
 
   6
   s   4
  1.301000000E+01  1.968498999E-02
  1.962000000E+00  1.379769298E-01
  4.446000000E-01  4.781477569E-01
  1.220000000E-01  5.012397451E-01
   s   1
  1.220000000E-01  1.000000000E+00
   p   1
  7.270000000E-01  1.000000000E+00
 
   7
   s   4
  1.301000000E+01  1.968498999E-02
  1.962000000E+00  1.379769298E-01
  4.446000000E-01  4.781477569E-01
  1.220000000E-01  5.012397451E-01
   s   1
  1.220000000E-01  1.000000000E+00
   p   1
  7.270000000E-01  1.000000000E+00
 
   8
   s   4
  1.301000000E+01  1.968498999E-02
  1.962000000E+00  1.379769298E-01
  4.446000000E-01  4.781477569E-01
  1.220000000E-01  5.012397451E-01
   s   1
  1.220000000E-01  1.000000000E+00
   p   1
  7.270000000E-01  1.000000000E+00
 
   9
   s   4
  1.301000000E+01  1.968498999E-02
  1.962000000E+00  1.379769298E-01
  4.446000000E-01  4.781477569E-01
  1.220000000E-01  5.012397451E-01
   s   1
  1.220000000E-01  1.000000000E+00
   p   1
  7.270000000E-01  1.000000000E+00
 
[MO]
Sym=     1a  
Ene=   -91.9700
Spin= Alpha
Occup=    2.00000
   1         1.00002331
   2         0.00018599
   3         0.00038577
   4        -0.00082833
   5        -0.00001143
   6        -0.00006527
   7         0.00000537
   8        -0.00000851
   9         0.00002766
  10        -0.00000153
  11         0.00005350
  12         0.00029001
  13        -0.00002401
  14         0.00003600
  15         0.00000306
  16         0.00000538
  17         0.00000991
  18        -0.00000174
  19        -0.00001847
  20        -0.00009516
  21         0.00032795
  22         0.00003002
  23        -0.00004050
  24         0.00000128
  25        -0.00015985
  26         0.00014711
  27        -0.00000183
  28         0.00000679
  29        -0.00000335
  30         0.00000009
  31         0.00002000
  32         0.00003976
  33        -0.00001540
  34        -0.00005252
  35         0.00005050
  36        -0.00000327
  37        -0.00001548
  38         0.00000130
  39         0.00004338
  40        -0.00001012
  41        -0.00000167
  42        -0.00000636
  43        -0.00000136
  44         0.00000022
  45         0.00001388
  46        -0.00000025
  47        -0.00001535
  48        -0.00005326
  49         0.00004810
  50        -0.00000104
  51        -0.00001764
  52         0.00000134
  53        -0.00004571
  54         0.00000438
  55         0.00000221
  56        -0.00000634
  57        -0.00000060
  58         0.00000042
  59         0.00001056
  60        -0.00000817
  61        -0.00001865
  62        -0.00008724
  63         0.00032878
  64        -0.00003040
  65        -0.00001852
  66         0.00000303
  67         0.00019958
  68         0.00008051
  69        -0.00001689
  70         0.00000600
  71         0.00000424
  72         0.00000238
  73        -0.00001033
  74        -0.00004234
  75        -0.00003406
  76         0.00006194
  77         0.00001037
  78        -0.00002147
  79         0.00000098
  80        -0.00001384
  81         0.00000033
  82        -0.00000548
  83         0.00000125
  84         0.00000021
  85        -0.00001268
  86         0.00000022
  87         0.00000555
  88        -0.00000076
  89        -0.00000025
  90        -0.00003772
  91         0.00006242
  92        -0.00001692
  93        -0.00001643
  94         0.00000213
Sym=     2a  
Ene=   -11.2490
Spin= Alpha
Occup=    2.00000
   1        -0.00003563
   2        -0.00012919
   3        -0.00054441
   4         0.00276263
   5        -0.00010584
   6        -0.00007812
   7         0.00001153
   8         0.00112127
   9         0.00123603
  10        -0.00015167
  11        -0.00069698
  12        -0.00079057
  13         0.00009598
  14         0.00025542
  15         0.00005042
  16         0.00004370
  17        -0.00007288
  18        -0.00029716
  19        -0.03076573
  20        -0.00043106
  21         0.00036525
  22         0.00000412
  23        -0.00019604
  24         0.00001405
  25        -0.00016046
  26        -0.00026703
  27         0.00002827
  28        -0.00001974
  29        -0.00000411
  30        -0.00000252
  31         0.00001448
  32         0.00001916
  33        -0.00035834
  34        -0.00007837
  35         0.00020827
  36         0.00008726
  37         0.00013772
  38        -0.00001484
  39        -0.00053201
  40        -0.00010704
  41         0.00003720
  42        -0.00007414
  43         0.00000636
  44        -0.00000375
  45        -0.00004083
  46        -0.00015425
  47         0.04521230
  48        -0.00027427
  49         0.00274848
  50        -0.00010694
  51         0.00015092
  52        -0.00000510
  53        -0.00009450
  54         0.00184233
  55        -0.00012852
  56         0.00027989
  57         0.00004496
  58         0.00006616
  59         0.00014734
  60        -0.00035631
  61         0.99996425
  62         0.00767259
  63        -0.01057016
  64        -0.00084518
  65        -0.00051753
  66         0.00008434
  67        -0.00148759
  68         0.00093836
  69         0.00001416
  70        -0.00039567
  71         0.00001061
  72        -0.00000670
  73         0.00005263
  74        -0.00070866
  75        -0.00016761
  76         0.00014002
  77        -0.00001054
  78         0.00003567
  79        -0.00000200
  80        -0.00016258
  81         0.00018069
  82        -0.00000066
  83        -0.00003982
  84         0.00000293
  85         0.00028244
  86         0.00019187
  87         0.00018002
  88         0.00010268
  89        -0.00001742
  90        -0.00099860
  91         0.00137578
  92        -0.00060896
  93         0.00012300
  94         0.00002479
Sym=     3a  
Ene=   -11.2480
Spin= Alpha
Occup=    2.00000
   1        -0.00003663
   2        -0.00014009
   3        -0.00046511
   4         0.00284862
   5         0.00005228
   6        -0.00009553
   7         0.00000404
   8        -0.00034528
   9         0.00125185
  10        -0.00007168
  11         0.00028629
  12        -0.00098134
  13         0.00005539
  14         0.00025503
  15         0.00000159
  16         0.00002845
  17         0.00011984
  18         0.00022521
  19         0.99974653
  20         0.00789894
  21        -0.01059539
  22         0.00044321
  23        -0.00048115
  24         0.00001046
  25         0.00173752
  26         0.00027863
  27        -0.00011643
  28        -0.00039050
  29        -0.00010029
  30        -0.00004121
  31         0.00048852
  32         0.00048679
  33         0.04969719
  34        -0.00028678
  35         0.00270631
  36         0.00012613
  37         0.00007426
  38        -0.00001234
  39         0.00069237
  40         0.00167690
  41        -0.00016007
  42         0.00027492
  43        -0.00000390
  44         0.00004928
  45         0.00032834
  46         0.00016909
  47         0.00270979
  48        -0.00013145
  49         0.00038250
  50        -0.00005320
  51         0.00013685
  52        -0.00000698
  53         0.00046717
  54        -0.00016879
  55        -0.00001359
  56        -0.00005483
  57        -0.00001827
  58        -0.00000821
  59         0.00007536
  60         0.00012061
  61         0.03059530
  62         0.00004193
  63        -0.00029234
  64        -0.00013389
  65        -0.00018929
  66         0.00002118
  67        -0.00004221
  68        -0.00025766
  69         0.00002103
  70        -0.00004671
  71        -0.00000021
  72        -0.00000112
  73         0.00001313
  74        -0.00006884
  75        -0.00103745
  76         0.00137559
  77         0.00060841
  78        -0.00008774
  79        -0.00002731
  80         0.00029343
  81         0.00021390
  82        -0.00013291
  83         0.00015243
  84        -0.00000371
  85        -0.00013080
  86         0.00019185
  87        -0.00000145
  88        -0.00003099
  89         0.00000233
  90        -0.00019138
  91         0.00021769
  92        -0.00001498
  93         0.00003870
  94        -0.00000198
Sym=     4a  
Ene=   -11.2350
Spin= Alpha
Occup=    2.00000
   1         0.00002318
   2         0.00019130
   3         0.00038880
   4        -0.00028946
   5        -0.00000136
   6        -0.00003150
   7         0.00000236
   8         0.00004469
   9         0.00026436
  10        -0.00002164
  11        -0.00000808
  12         0.00005297
  13        -0.00000338
  14         0.00011700
  15         0.00000907
  16         0.00001990
  17         0.00005881
  18        -0.00001389
  19         0.04238473
  20         0.00089448
  21        -0.00293869
  22         0.00000484
  23        -0.00022321
  24         0.00001575
  25         0.00098916
  26         0.00099388
  27        -0.00012693
  28        -0.00026178
  29        -0.00004120
  30        -0.00003401
  31         0.00009859
  32         0.00014312
  33        -0.82414501
  34        -0.00721648
  35         0.00823371
  36        -0.00004213
  37        -0.00000126
  38         0.00000218
  39         0.00016016
  40         0.00117706
  41        -0.00009424
  42         0.00029950
  43         0.00000439
  44         0.00005786
  45         0.00033635
  46         0.00008188
  47        -0.56661396
  48        -0.00474020
  49         0.00452789
  50         0.00004726
  51         0.00000696
  52        -0.00000314
  53        -0.00043861
  54         0.00072404
  55        -0.00002836
  56         0.00005324
  57         0.00000145
  58         0.00003053
  59         0.00023101
  60        -0.00012440
  61         0.02715090
  62         0.00066756
  63        -0.00204984
  64        -0.00007048
  65        -0.00018009
  66         0.00001701
  67        -0.00035356
  68         0.00093060
  69        -0.00004796
  70        -0.00014452
  71        -0.00000636
  72        -0.00001541
  73        -0.00002523
  74        -0.00008506
  75        -0.00025589
  76        -0.00016816
  77         0.00015828
  78        -0.00002500
  79        -0.00000695
  80         0.00076499
  81        -0.00119469
  82        -0.00022485
  83         0.00038451
  84        -0.00001548
  85         0.00039854
  86        -0.00090351
  87         0.00020536
  88         0.00012753
  89        -0.00002062
  90        -0.00012828
  91        -0.00015922
  92        -0.00009613
  93         0.00001947
  94         0.00000391
Sym=     5a  
Ene=   -11.2340
Spin= Alpha
Occup=    2.00000
   1         0.00000438
   2         0.00003576
   3         0.00006469
   4        -0.00005990
   5        -0.00002920
   6        -0.00000134
   7         0.00000172
   8         0.00004083
   9         0.00004791
  10        -0.00000570
  11         0.00009096
  12        -0.00000479
  13        -0.00000473
  14         0.00002130
  15         0.00000480
  16         0.00000461
  17        -0.00000159
  18        -0.00003632
  19        -0.02736178
  20        -0.00039141
  21         0.00186177
  22        -0.00000656
  23         0.00005238
  24        -0.00000329
  25        -0.00075742
  26        -0.00048649
  27         0.00007722
  28         0.00028073
  29         0.00004673
  30         0.00003242
  31        -0.00015791
  32        -0.00014882
  33         0.56697769
  34         0.00559700
  35        -0.00882619
  36        -0.00000574
  37         0.00008155
  38        -0.00000536
  39         0.00143041
  40        -0.00159090
  41         0.00003626
  42        -0.00062582
  43        -0.00002589
  44        -0.00007084
  45        -0.00015667
  46        -0.00035571
  47        -0.82465061
  48        -0.00781438
  49         0.01118479
  50        -0.00001748
  51        -0.00007863
  52         0.00000694
  53         0.00184729
  54         0.00134833
  55        -0.00020028
  56         0.00068451
  57         0.00009967
  58         0.00010960
  59        -0.00002467
  60        -0.00043949
  61         0.03717861
  62         0.00064966
  63        -0.00275115
  64        -0.00005760
  65        -0.00012663
  66         0.00001251
  67        -0.00071569
  68         0.00112745
  69        -0.00004226
  70        -0.00035746
  71        -0.00001597
  72        -0.00002939
  73         0.00001499
  74        -0.00026581
  75         0.00030064
  76         0.00000093
  77        -0.00013846
  78         0.00002296
  79         0.00000600
  80        -0.00087945
  81         0.00059014
  82         0.00016649
  83        -0.00046761
  84         0.00002474
  85         0.00109215
  86        -0.00097919
  87         0.00041512
  88         0.00045760
  89        -0.00005618
  90        -0.00036872
  91        -0.00006556
  92        -0.00018334
  93         0.00003485
  94         0.00000762
Sym=     6a  
Ene=    -8.9749
Spin= Alpha
Occup=    2.00000
   1         0.00045305
   2         1.00332290
   3         0.00874633
   4        -0.01640624
   5        -0.00111756
   6        -0.00650703
   7         0.00053419
   8        -0.00110716
   9        -0.00799741
  10         0.00064156
  11         0.00123328
  12         0.00741693
  13        -0.00060666
  14         0.00001093
  15         0.00000121
  16         0.00000959
  17         0.00007026
  18        -0.00005526
  19        -0.00045040
  20         0.00047277
  21         0.00464087
  22        -0.00084580
  23         0.00198662
  24        -0.00009748
  25        -0.00200035
  26         0.00188664
  27        -0.00002623
  28         0.00026483
  29        -0.00001698
  30         0.00002459
  31         0.00020542
  32         0.00042772
  33        -0.00024436
  34        -0.00155770
  35         0.00102346
  36        -0.00030960
  37        -0.00079600
  38         0.00007489
  39         0.00063839
  40         0.00010926
  41        -0.00004326
  42        -0.00016917
  43        -0.00001275
  44        -0.00001910
  45        -0.00000349
  46        -0.00004662
  47        -0.00024650
  48        -0.00153335
  49         0.00108334
  50        -0.00000071
  51        -0.00078994
  52         0.00005740
  53        -0.00052486
  54         0.00034502
  55         0.00000403
  56        -0.00017066
  57        -0.00001970
  58        -0.00002067
  59         0.00002982
  60         0.00002149
  61        -0.00045101
  62         0.00034057
  63         0.00460691
  64         0.00122996
  65         0.00136845
  66        -0.00016750
  67         0.00251954
  68         0.00114251
  69        -0.00022240
  70         0.00026545
  71         0.00006676
  72         0.00005210
  73        -0.00011329
  74        -0.00047709
  75        -0.00039715
  76         0.00080554
  77        -0.00000687
  78        -0.00021894
  79         0.00001627
  80         0.00009324
  81         0.00018932
  82        -0.00004475
  83        -0.00002033
  84         0.00000395
  85         0.00005451
  86         0.00019671
  87         0.00003517
  88        -0.00003385
  89         0.00000051
  90        -0.00031575
  91         0.00079064
  92        -0.00006900
  93        -0.00021209
  94         0.00001922
Sym=     7a  
Ene=    -6.6563
Spin= Alpha
Occup=    2.00000
   1        -0.00000266
   2        -0.00040921
   3        -0.00004007
   4         0.00012317
   5         0.97082329
   6        -0.23754101
   7        -0.03649547
   8         0.00456013
   9        -0.00015640
  10        -0.00024097
  11        -0.00179046
  12         0.00022538
  13         0.00008274
  14         0.00001121
  15         0.00010671
  16         0.00003149
  17        -0.00044175
  18        -0.00111212
  19        -0.00006798
  20         0.00125249
  21        -0.00194842
  22        -0.00083120
  23         0.00128359
  24        -0.00004713
  25         0.00122171
  26        -0.00029640
  27        -0.00004611
  28         0.00009525
  29         0.00002454
  30         0.00001037
  31        -0.00011699
  32        -0.00012149
  33        -0.00008226
  34        -0.00025317
  35         0.00250418
  36        -0.00010465
  37         0.00002173
  38         0.00000425
  39        -0.00076243
  40         0.00118734
  41        -0.00004397
  42        -0.00007319
  43         0.00000044
  44        -0.00001481
  45        -0.00009817
  46        -0.00002868
  47         0.00007923
  48         0.00040634
  49        -0.00238753
  50        -0.00011962
  51         0.00017413
  52        -0.00000599
  53        -0.00107849
  54        -0.00079394
  55         0.00011737
  56         0.00007474
  57         0.00001064
  58         0.00001921
  59         0.00006191
  60        -0.00009341
  61         0.00007052
  62        -0.00163107
  63         0.00187584
  64        -0.00160905
  65        -0.00135031
  66         0.00018715
  67         0.00123600
  68         0.00001094
  69        -0.00006920
  70        -0.00007171
  71         0.00000715
  72        -0.00000165
  73        -0.00002894
  74        -0.00017081
  75        -0.00033664
  76        -0.00021728
  77        -0.00010266
  78         0.00007933
  79        -0.00000007
  80         0.00010555
  81         0.00039381
  82         0.00004192
  83        -0.00004039
  84         0.00000061
  85        -0.00017433
  86        -0.00038281
  87         0.00005297
  88         0.00002457
  89        -0.00000472
  90         0.00033994
  91         0.00020354
  92        -0.00011931
  93        -0.00005204
  94         0.00001038
Sym=     8a  
Ene=    -6.6554
Spin= Alpha
Occup=    2.00000
   1        -0.00002216
   2         0.00581580
   3        -0.00292208
   4         0.00222784
   5         0.23387192
   6         0.96864019
   7        -0.08325775
   8         0.00177170
   9         0.00420670
  10        -0.00040338
  11        -0.00036952
  12        -0.00039633
  13         0.00004924
  14         0.00058359
  15         0.00005688
  16         0.00012511
  17         0.00044118
  18        -0.00033985
  19         0.00008848
  20        -0.00136590
  21         0.00110880
  22         0.00083001
  23        -0.00153910
  24         0.00006582
  25        -0.00091730
  26         0.00016519
  27         0.00003879
  28        -0.00000130
  29        -0.00002678
  30        -0.00000487
  31         0.00013650
  32         0.00026171
  33        -0.00002039
  34         0.00041495
  35        -0.00037738
  36         0.00013723
  37         0.00029179
  38        -0.00002877
  39        -0.00007487
  40        -0.00020901
  41         0.00001932
  42         0.00001128
  43        -0.00000675
  44         0.00001057
  45         0.00013164
  46         0.00000781
  47        -0.00001084
  48         0.00048482
  49        -0.00060154
  50        -0.00011068
  51         0.00038997
  52        -0.00002223
  53        -0.00007383
  54        -0.00027974
  55         0.00002440
  56         0.00001804
  57         0.00000486
  58         0.00001825
  59         0.00011808
  60        -0.00013181
  61         0.00011405
  62        -0.00209343
  63         0.00135897
  64        -0.00212654
  65        -0.00179649
  66         0.00024812
  67         0.00111889
  68        -0.00005027
  69        -0.00005829
  70        -0.00000081
  71         0.00002901
  72         0.00001569
  73        -0.00005630
  74        -0.00035564
  75        -0.00026027
  76         0.00039613
  77         0.00009332
  78        -0.00003183
  79        -0.00000285
  80        -0.00017066
  81        -0.00011089
  82        -0.00001552
  83         0.00001702
  84        -0.00000038
  85        -0.00022059
  86        -0.00016886
  87         0.00002971
  88         0.00001639
  89        -0.00000284
  90        -0.00004117
  91         0.00041382
  92        -0.00012104
  93        -0.00001178
  94         0.00000755
Sym=     9a  
Ene=    -6.6534
Spin= Alpha
Occup=    2.00000
   1         0.00000000
   2         0.00000002
   3        -0.00000004
   4        -0.00000000
   5         0.05511977
   6         0.07228236
   7         0.99578203
   8        -0.00030936
   9        -0.00040570
  10        -0.00558955
  11         0.00004938
  12         0.00006476
  13         0.00089202
  14         0.00002883
  15        -0.00004741
  16        -0.00019120
  17         0.00001129
  18        -0.00001416
  19        -0.00000000
  20        -0.00000000
  21        -0.00000001
  22        -0.00004370
  23        -0.00005736
  24        -0.00078947
  25        -0.00000380
  26        -0.00000501
  27        -0.00006899
  28         0.00000446
  29         0.00007855
  30        -0.00009502
  31         0.00001125
  32         0.00000042
  33        -0.00000000
  34        -0.00000001
  35         0.00000006
  36         0.00002239
  37         0.00002934
  38         0.00040384
  39         0.00000907
  40         0.00001198
  41         0.00016468
  42         0.00000334
  43        -0.00002019
  44        -0.00001097
  45        -0.00000032
  46        -0.00000209
  47         0.00000000
  48         0.00000003
  49        -0.00000005
  50         0.00002332
  51         0.00003062
  52         0.00042145
  53         0.00000870
  54         0.00001146
  55         0.00015795
  56         0.00000080
  57         0.00001450
  58        -0.00001731
  59         0.00000206
  60         0.00000009
  61         0.00000000
  62        -0.00000002
  63         0.00000002
  64        -0.00004295
  65        -0.00005636
  66        -0.00077562
  67        -0.00000211
  68        -0.00000278
  69        -0.00003849
  70         0.00001707
  71        -0.00010139
  72        -0.00005732
  73        -0.00000143
  74        -0.00001062
  75        -0.00000001
  76        -0.00000001
  77        -0.00000082
  78        -0.00000107
  79        -0.00001471
  80         0.00000000
  81         0.00000001
  82         0.00000046
  83         0.00000060
  84         0.00000834
  85        -0.00000000
  86        -0.00000002
  87         0.00000052
  88         0.00000068
  89         0.00000931
  90        -0.00000002
  91         0.00000001
  92        -0.00000081
  93        -0.00000106
  94        -0.00001460
Sym=    10a  
Ene=    -1.1118
Spin= Alpha
Occup=    2.00000
   1        -0.00045542
   2        -0.00604046
   3         0.28592296
   4        -0.00776941
   5         0.00062407
   6         0.00424838
   7        -0.00034295
   8         0.01914348
   9         0.05654792
  10        -0.00516756
  11         0.00239565
  12         0.02713844
  13        -0.00210368
  14        -0.00650248
  15        -0.00032502
  16        -0.00138207
  17        -0.00685846
  18         0.00104107
  19        -0.01101463
  20         0.31314619
  21        -0.10040714
  22        -0.07808880
  23        -0.13225559
  24         0.01393380
  25         0.03328900
  26         0.03257717
  27        -0.00420697
  28        -0.00891475
  29        -0.00135031
  30        -0.00198325
  31        -0.00416106
  32         0.00982709
  33        -0.01687338
  34         0.50334299
  35        -0.13889462
  36        -0.05111851
  37         0.12158458
  38        -0.00598116
  39         0.01358513
  40        -0.03208465
  41         0.00157679
  42        -0.01203771
  43        -0.00172773
  44        -0.00113949
  45         0.00710680
  46         0.00234299
  47        -0.01673538
  48         0.49768929
  49        -0.13539020
  50         0.09019767
  51         0.09274826
  52        -0.01173066
  53        -0.02321670
  54        -0.02363606
  55         0.00300209
  56        -0.01201719
  57        -0.00093200
  58        -0.00083690
  59         0.00444606
  60        -0.00650890
  61        -0.01045186
  62         0.29637091
  63        -0.09855863
  64         0.02342755
  65        -0.15402822
  66         0.00988276
  67        -0.02083986
  68         0.04299480
  69        -0.00196959
  70        -0.00864052
  71         0.00006568
  72        -0.00147646
  73        -0.00930280
  74        -0.00530015
  75         0.07025094
  76        -0.03302355
  77        -0.00664436
  78        -0.00275528
  79         0.00056809
  80         0.11176739
  81        -0.05676112
  82        -0.00489809
  83         0.01054996
  84        -0.00049437
  85         0.11104508
  86        -0.05621903
  87         0.00815121
  88         0.00809613
  89        -0.00103908
  90         0.06634570
  91        -0.03100822
  92         0.00491084
  93        -0.00476591
  94         0.00007408
Sym=    11a  
Ene=    -0.9464
Spin= Alpha
Occup=    2.00000
   1         0.00018224
   2         0.00201568
   3        -0.20423875
   4         0.00128282
   5         0.00322189
   6        -0.00142307
   7        -0.00007501
   8         0.00559229
   9        -0.03819922
  10         0.00246378
  11         0.00774262
  12        -0.00438238
  13        -0.00010923
  14         0.00110728
  15        -0.00108278
  16        -0.00038545
  17         0.00334334
  18         0.01375775
  19         0.01558391
  20        -0.44261076
  21         0.10615592
  22        -0.01110583
  23         0.15828459
  24        -0.01088369
  25         0.01546085
  26        -0.03273343
  27         0.00152023
  28         0.00850161
  29         0.00104698
  30         0.00178341
  31         0.00463284
  32        -0.00657744
  33         0.00933776
  34        -0.29208142
  35         0.07228479
  36        -0.20921829
  37        -0.09622791
  38         0.01855362
  39         0.06194215
  40         0.01636020
  41        -0.00461638
  42         0.00279806
  43         0.00110008
  44         0.00216839
  45         0.01024432
  46        -0.01910559
  47        -0.01515584
  48         0.43949894
  49        -0.10594195
  50        -0.12312554
  51         0.12817303
  52        -0.00250259
  53         0.04568976
  54        -0.02454863
  55        -0.00074537
  56        -0.00639148
  57         0.00096368
  58        -0.00138705
  59        -0.01553437
  60        -0.00990978
  61        -0.01284884
  62         0.39869648
  63        -0.09531275
  64        -0.07133938
  65        -0.20204238
  66         0.01861543
  67         0.02549645
  68         0.04929306
  69        -0.00499037
  70        -0.00723416
  71         0.00064163
  72        -0.00106286
  73        -0.01019170
  74        -0.01065355
  75        -0.20811470
  76         0.07652961
  77         0.01484836
  78         0.00310022
  79        -0.00104722
  80        -0.12292662
  81         0.05442083
  82         0.00090719
  83        -0.01143705
  84         0.00077975
  85         0.19053528
  86        -0.07900552
  87         0.00898324
  88         0.01324763
  89        -0.00145933
  90         0.17317053
  91        -0.06521784
  92         0.00965036
  93        -0.00774925
  94         0.00002835
Sym=    12a  
Ene=    -0.9309
Spin= Alpha
Occup=    2.00000
   1         0.00075583
   2         0.00808023
   3        -0.77053926
   4         0.00231595
   5        -0.00118544
   6        -0.00311887
   7         0.00029198
   8        -0.05396592
   9        -0.14612728
  10         0.01360393
  11         0.00151923
  12        -0.01170239
  13         0.00076411
  14         0.00331726
  15         0.00053288
  16        -0.00004947
  17        -0.00549627
  18         0.00124478
  19         0.00231160
  20        -0.00093117
  21        -0.00142982
  22        -0.02155350
  23        -0.15060834
  24         0.01213275
  25         0.01397785
  26         0.05218303
  27        -0.00456294
  28         0.00115463
  29        -0.00152985
  30        -0.00033409
  31         0.00675092
  32         0.01736398
  33        -0.01364635
  34         0.36195508
  35        -0.08070139
  36        -0.04810411
  37        -0.02556987
  38         0.00452912
  39         0.00485286
  40         0.01883408
  41        -0.00163707
  42        -0.00732726
  43        -0.00118028
  44        -0.00052116
  45         0.00667982
  46         0.00140306
  47        -0.00686309
  48         0.15741037
  49        -0.03675189
  50         0.11978782
  51        -0.11533036
  52         0.00174751
  53        -0.02863926
  54         0.03252611
  55        -0.00077643
  56        -0.00476966
  57        -0.00117461
  58         0.00037953
  59         0.01329783
  60        -0.00029053
  61         0.00911740
  62        -0.20211351
  63         0.05248083
  64         0.01978993
  65        -0.03825866
  66         0.00168755
  67        -0.00829067
  68         0.02903940
  69        -0.00164883
  70         0.00459107
  71         0.00146312
  72         0.00122176
  73        -0.00122206
  74        -0.01302556
  75        -0.02768489
  76         0.00777582
  77         0.00343551
  78        -0.00230299
  79        -0.00002284
  80         0.17456007
  81        -0.06483711
  82        -0.00649343
  83         0.01134432
  84        -0.00046392
  85         0.08083247
  86        -0.02583440
  87         0.00584700
  88         0.00164762
  89        -0.00044311
  90        -0.12515846
  91         0.04283420
  92        -0.00939283
  93         0.00325055
  94         0.00028407
Sym=    13a  
Ene=    -0.7586
Spin= Alpha
Occup=    2.00000
   1        -0.00006884
   2        -0.00142725
   3        -0.39053207
   4        -0.03071211
   5         0.00029666
   6         0.00098564
   7        -0.00008798
   8        -0.01196270
   9        -0.01940566
  10         0.00207891
  11         0.00371869
  12         0.00974612
  13        -0.00091300
  14        -0.00269881
  15        -0.00055973
  16         0.00036439
  17         0.00812913
  18        -0.00205984
  19        -0.00870581
  20         0.36821509
  21        -0.04554033
  22         0.18947754
  23        -0.13742289
  24        -0.00051413
  25        -0.06017028
  26         0.04531968
  27         0.00004079
  28        -0.00187160
  29        -0.00084428
  30        -0.00068573
  31         0.00051550
  32         0.00869313
  33         0.00240576
  34        -0.13423243
  35         0.02646858
  36         0.27685155
  37         0.13909078
  38        -0.02542856
  39        -0.06390252
  40        -0.04339647
  41         0.00668875
  42         0.00266887
  43        -0.00013497
  44        -0.00090900
  45        -0.00822034
  46         0.01160749
  47         0.00287216
  48        -0.15026420
  49         0.02683718
  50        -0.20545280
  51         0.22645166
  52        -0.00506777
  53         0.04180252
  54        -0.06392606
  55         0.00232630
  56         0.00267497
  57         0.00127651
  58        -0.00042854
  59        -0.01343856
  60        -0.00376439
  61        -0.00891959
  62         0.37523715
  63        -0.04471890
  64        -0.22587948
  65        -0.05070660
  66         0.01618655
  67         0.07333885
  68         0.01846061
  69        -0.00540023
  70        -0.00208750
  71         0.00055643
  72        -0.00023615
  73        -0.00479659
  74        -0.00675138
  75         0.33914026
  76        -0.12404116
  77        -0.02003321
  78        -0.00435392
  79         0.00142502
  80        -0.08595284
  81         0.02744566
  82         0.00516934
  83        -0.00303010
  84        -0.00006627
  85        -0.09900394
  86         0.03174522
  87        -0.00635785
  88        -0.00168489
  89         0.00047424
  90         0.34853897
  91        -0.12745066
  92         0.01786390
  93        -0.01112170
  94        -0.00018135
Sym=    14a  
Ene=    -0.6851
Spin= Alpha
Occup=    2.00000
   1        -0.00001279
   2        -0.00012260
   3         0.01638577
   4         0.00027644
   5         0.00387847
   6        -0.00055964
   7        -0.00017407
   8         0.02417783
   9        -0.00073939
  10        -0.00128893
  11         0.01996641
  12        -0.00251629
  13        -0.00092401
  14         0.00005360
  15        -0.00017720
  16        -0.00014432
  17        -0.00008980
  18         0.00257494
  19         0.00763110
  20        -0.23391457
  21         0.01688004
  22        -0.29881119
  23        -0.07209976
  24         0.02178724
  25         0.07612878
  26         0.02219259
  27        -0.00582451
  28         0.00143275
  29         0.00100712
  30        -0.00086455
  31        -0.01487348
  32        -0.00065233
  33        -0.00748564
  34         0.30197528
  35        -0.00450179
  36         0.09616575
  37        -0.12292649
  38         0.00361554
  39        -0.04781811
  40         0.04461379
  41        -0.00059063
  42        -0.00061334
  43         0.00159585
  44        -0.00066325
  45        -0.01611092
  46        -0.01047371
  47         0.00786924
  48        -0.30260003
  49         0.00313097
  50         0.14879659
  51         0.10052927
  52        -0.01552946
  53        -0.06414568
  54        -0.02954251
  55         0.00569602
  56         0.00031645
  57         0.00102607
  58         0.00146826
  59         0.00578901
  60        -0.01799696
  61        -0.00747281
  62         0.22655171
  63        -0.01809434
  64        -0.23846474
  65         0.15885125
  66         0.00166405
  67         0.05956711
  68        -0.04523424
  69        -0.00001382
  70        -0.00175645
  71        -0.00003816
  72         0.00115734
  73         0.01111975
  74        -0.01020861
  75        -0.42096503
  76         0.13112052
  77         0.01971648
  78         0.00247081
  79        -0.00127051
  80         0.31345644
  81        -0.09240327
  82        -0.00526013
  83         0.01449305
  84        -0.00076060
  85        -0.33639550
  86         0.09973386
  87        -0.01063701
  88        -0.01259771
  89         0.00150357
  90         0.39833947
  91        -0.12278507
  92         0.01656546
  93        -0.00868956
  94        -0.00028615
Sym=    15a  
Ene=    -0.6767
Spin= Alpha
Occup=    2.00000
   1        -0.00023247
   2        -0.00095398
   3         0.09612432
   4         0.02422333
   5        -0.00044982
   6        -0.00295133
   7         0.00023918
   8         0.01222973
   9         0.04008696
  10        -0.00359034
  11        -0.00661214
  12        -0.03674200
  13         0.00303440
  14         0.00233209
  15        -0.00049900
  16         0.00276338
  17         0.02626666
  18        -0.00994193
  19        -0.00113590
  20        -0.03242639
  21         0.02473272
  22         0.24973972
  23         0.16591278
  24        -0.02587482
  25        -0.05103989
  26        -0.03992345
  27         0.00572344
  28         0.00346076
  29         0.00140343
  30         0.00039912
  31        -0.00745863
  32        -0.00898878
  33        -0.00462619
  34         0.04420783
  35         0.01840939
  36         0.03969677
  37        -0.42082908
  38         0.02834567
  39        -0.01447360
  40         0.10231513
  41        -0.00662641
  42         0.00193577
  43        -0.00011582
  44         0.00046881
  45         0.00396445
  46         0.00114895
  47        -0.00419471
  48         0.02724200
  49         0.01908988
  50        -0.17183419
  51        -0.37496215
  52         0.03673584
  53         0.04493742
  54         0.08967729
  55        -0.00899850
  56         0.00190788
  57         0.00038250
  58         0.00070206
  59         0.00267402
  60        -0.00473375
  61        -0.00155190
  62        -0.01984172
  63         0.02329568
  64        -0.19707260
  65         0.24890839
  66        -0.00716619
  67         0.03837605
  68        -0.05700639
  69         0.00201536
  70         0.00355290
  71        -0.00048893
  72        -0.00009652
  73         0.00078089
  74         0.01080155
  75         0.21485822
  76        -0.07918056
  77        -0.01194036
  78         0.00204651
  79         0.00051227
  80         0.38581892
  81        -0.12587509
  82        -0.00899092
  83         0.01672621
  84        -0.00071679
  85         0.36606552
  86        -0.12012649
  87         0.01350780
  88         0.01192148
  89        -0.00161320
  90         0.24102222
  91        -0.08722610
  92         0.01294682
  93        -0.00280136
  94        -0.00051333
Sym=    16a  
Ene=    -0.5635
Spin= Alpha
Occup=    2.00000
   1        -0.00001303
   2        -0.00006688
   3         0.00370703
   4         0.00098969
   5        -0.00060244
   6         0.00009260
   7         0.00002663
   8         0.03116462
   9        -0.00231482
  10        -0.00155771
  11         0.00135501
  12        -0.00043150
  13        -0.00004327
  14         0.00025122
  15        -0.00117986
  16        -0.00036780
  17         0.00453493
  18         0.01304734
  19        -0.00039305
  20        -0.13895199
  21        -0.01019180
  22         0.31511286
  23         0.21017427
  24        -0.03270971
  25        -0.04722454
  26        -0.02791926
  27         0.00464036
  28         0.00043078
  29         0.00075862
  30         0.00033057
  31        -0.00237483
  32        -0.00801508
  33        -0.00367639
  34        -0.00518897
  35         0.04453097
  36        -0.02730042
  37        -0.42336519
  38         0.03223407
  39         0.02606454
  40         0.11283207
  41        -0.00963341
  42        -0.00047720
  43         0.00222146
  44         0.00149657
  45        -0.00155610
  46        -0.02986722
  47         0.00365252
  48         0.00456932
  49        -0.04473407
  50         0.10729713
  51         0.41111600
  52        -0.03579533
  53        -0.01150972
  54        -0.11595012
  55         0.00905707
  56         0.00019223
  57         0.00276971
  58         0.00001077
  59        -0.01842947
  60        -0.02373193
  61         0.00042858
  62         0.13878146
  63         0.00984115
  64         0.22648476
  65        -0.31297473
  66         0.01019092
  67        -0.03519533
  68         0.04343553
  69        -0.00120496
  70        -0.00046275
  71         0.00069771
  72         0.00008005
  73        -0.00373314
  74        -0.00733756
  75         0.24999890
  76        -0.07902436
  77        -0.01061525
  78         0.00181687
  79         0.00045552
  80         0.39260566
  81        -0.09777730
  82        -0.01079501
  83         0.00973158
  84        -0.00010918
  85        -0.38852280
  86         0.09657444
  87        -0.01344559
  88        -0.00518085
  89         0.00112026
  90        -0.25478642
  91         0.08039189
  92        -0.01073806
  93         0.00194401
  94         0.00045337
Sym=    17a  
Ene=    -0.5393
Spin= Alpha
Occup=    2.00000
   1         0.00009863
   2        -0.00002970
   3        -0.08565780
   4        -0.02460851
   5        -0.00003075
   6        -0.00011051
   7         0.00000979
   8         0.01473434
   9         0.08271805
  10        -0.00682707
  11        -0.00119335
  12        -0.00708389
  13         0.00058153
  14        -0.00108471
  15        -0.00072835
  16         0.00185186
  17         0.02143229
  18        -0.00767404
  19        -0.00196923
  20         0.00138798
  21         0.00452883
  22         0.23708656
  23         0.16622334
  24        -0.02520054
  25        -0.03548944
  26        -0.01947237
  27         0.00337665
  28        -0.00034895
  29        -0.00170105
  30         0.00099931
  31         0.02017087
  32         0.00757815
  33         0.00166646
  34         0.04865584
  35         0.01499277
  36        -0.54391797
  37         0.06766307
  38         0.02519573
  39         0.11367281
  40        -0.00170219
  41        -0.00617063
  42        -0.00151860
  43        -0.00117420
  44         0.00200949
  45         0.02597139
  46        -0.00559122
  47         0.00172354
  48         0.04926840
  49         0.01449146
  50         0.53579617
  51        -0.11628896
  52        -0.02122475
  53        -0.10738468
  54         0.03555950
  55         0.00336467
  56        -0.00156020
  57        -0.00049439
  58         0.00220301
  59         0.02314030
  60        -0.01281202
  61        -0.00196492
  62         0.00364601
  63         0.00461403
  64        -0.16217976
  65         0.23202350
  66        -0.00787262
  67         0.02603047
  68        -0.02952457
  69         0.00070450
  70        -0.00051989
  71         0.00075244
  72         0.00176056
  73         0.01052590
  74        -0.01894884
  75         0.28263855
  76        -0.07229400
  77        -0.00949002
  78        -0.00015032
  79         0.00053603
  80        -0.27432081
  81         0.06867074
  82        -0.00382948
  83        -0.01261944
  84         0.00112803
  85        -0.28127656
  86         0.07033781
  87        -0.00091762
  88        -0.01326297
  89         0.00101354
  90         0.27744867
  91        -0.07077239
  92         0.00865037
  93        -0.00337047
  94        -0.00023419
Sym=    18a  
Ene=    -0.5948
Spin= Alpha
Occup=    1.96755
   1        -0.00027870
   2         0.00004206
   3         0.03432282
   4         0.02122702
   5         0.01204687
   6        -0.00253743
   7        -0.00048265
   8        -0.69468049
   9         0.22218934
  10         0.02228461
  11         0.16385645
  12        -0.03982599
  13        -0.00617746
  14         0.00467752
  15        -0.00722401
  16        -0.00175221
  17         0.03069817
  18         0.08188844
  19         0.00297388
  20        -0.25935700
  21        -0.00720886
  22         0.23422774
  23        -0.38226219
  24         0.01477103
  25         0.00274443
  26         0.07544525
  27        -0.00562837
  28         0.00824046
  29        -0.00152501
  30         0.00130983
  31         0.01777079
  32         0.01835693
  33        -0.00099461
  34         0.02928239
  35         0.05484226
  36         0.04981297
  37         0.04201974
  38        -0.00581005
  39        -0.02732097
  40         0.03755742
  41        -0.00121191
  42        -0.00113823
  43        -0.00166044
  44         0.00055152
  45         0.01637009
  46         0.00884251
  47         0.00066443
  48        -0.00988075
  49        -0.04803116
  50         0.03057471
  51        -0.03771060
  52         0.00104389
  53        -0.03502520
  54        -0.02254139
  55         0.00357742
  56         0.00165025
  57        -0.00065386
  58        -0.00103195
  59        -0.00537037
  60         0.01519440
  61        -0.00280216
  62         0.21478705
  63         0.00821886
  64         0.29724461
  65         0.22803519
  66        -0.03301870
  67        -0.01569231
  68        -0.06098652
  69         0.00529662
  70        -0.00615992
  71        -0.00190974
  72        -0.00251198
  73        -0.00629769
  74         0.02274068
  75         0.10091772
  76        -0.01043426
  77         0.00098465
  78        -0.00590476
  79         0.00037384
  80        -0.03281740
  81        -0.00005698
  82        -0.00046134
  83         0.00156726
  84        -0.00008834
  85         0.02361747
  86        -0.00049615
  87        -0.00074789
  88        -0.00105473
  89         0.00011787
  90        -0.09957679
  91         0.01199908
  92         0.00241600
  93         0.00394361
  94        -0.00042032
Sym=    19a  
Ene=    -0.4549
Spin= Alpha
Occup=    1.97896
   1        -0.00000003
   2        -0.00000049
   3        -0.00001436
   4         0.00000237
   5        -0.00005247
   6        -0.00006815
   7        -0.00093928
   8        -0.04646103
   9        -0.06098006
  10        -0.83998658
  11         0.00102915
  12         0.00136047
  13         0.01872753
  14        -0.00513904
  15         0.00535675
  16         0.03645226
  17        -0.00235780
  18         0.00242649
  19        -0.00000002
  20         0.00001610
  21        -0.00000101
  22        -0.01436318
  23        -0.01880943
  24        -0.25918958
  25         0.00088001
  26         0.00115029
  27         0.01587918
  28         0.00085606
  29         0.01614398
  30        -0.01906417
  31         0.00227736
  32         0.00011242
  33        -0.00000015
  34         0.00000680
  35        -0.00000369
  36        -0.00247896
  37        -0.00325601
  38        -0.04491810
  39         0.00202905
  40         0.00266132
  41         0.03670457
  42         0.00155289
  43        -0.00366947
  44        -0.00945086
  45         0.00048401
  46        -0.00079679
  47        -0.00000006
  48        -0.00000106
  49         0.00000266
  50        -0.00202784
  51        -0.00264777
  52        -0.03652279
  53         0.00199916
  54         0.00262328
  55         0.03610388
  56         0.00123488
  57        -0.00012555
  58        -0.00963928
  59         0.00069480
  60        -0.00054895
  61         0.00000035
  62        -0.00001418
  63         0.00000067
  64        -0.01359071
  65        -0.01782509
  66        -0.24526090
  67         0.00111419
  68         0.00146517
  69         0.02010377
  70         0.00350804
  71        -0.02063617
  72        -0.01193047
  73        -0.00027184
  74        -0.00217603
  75        -0.00000904
  76         0.00000123
  77        -0.00034163
  78        -0.00044796
  79        -0.00617172
  80         0.00000334
  81        -0.00000044
  82        -0.00004640
  83        -0.00006088
  84        -0.00084142
  85        -0.00000061
  86        -0.00000066
  87        -0.00003198
  88        -0.00004197
  89        -0.00057915
  90        -0.00000010
  91         0.00000075
  92        -0.00032428
  93        -0.00042505
  94        -0.00585122
Sym=    20a  
Ene=    -0.5666
Spin= Alpha
Occup=    1.97452
   1         0.00287300
   2         0.00632766
   3         0.01795419
   4        -0.20323230
   5         0.00489960
   6         0.01296343
   7        -0.00121210
   8        -0.21661176
   9        -0.77314996
  10         0.06811091
  11         0.03530912
  12         0.08935854
  13        -0.00843942
  14        -0.04257439
  15        -0.00498314
  16        -0.00579921
  17         0.00227733
  18         0.01013238
  19         0.00040909
  20         0.20011056
  21        -0.02562851
  22        -0.12483206
  23         0.28778832
  24        -0.01399555
  25         0.02248891
  26        -0.06250839
  27         0.00329211
  28        -0.00891039
  29         0.00050679
  30         0.00073064
  31         0.00706504
  32        -0.02406380
  33         0.00179925
  34        -0.09019759
  35        -0.01872949
  36        -0.03350721
  37        -0.08194611
  38         0.00778717
  39         0.00730885
  40        -0.01136298
  41         0.00042068
  42        -0.00165334
  43         0.00053654
  44        -0.00083478
  45        -0.01006424
  46        -0.00192705
  47         0.00188184
  48        -0.09287221
  49        -0.02926998
  50         0.01125792
  51        -0.09413324
  52         0.00620754
  53        -0.01835715
  54        -0.01392739
  55         0.00202707
  56        -0.00134905
  57        -0.00050263
  58        -0.00139332
  59        -0.00815252
  60         0.01124791
  61         0.00022750
  62         0.26116559
  63        -0.02644905
  64         0.28847072
  65         0.28191755
  66        -0.03643529
  67        -0.04737170
  68        -0.06458802
  69         0.00731421
  70        -0.01029099
  71        -0.00348274
  72        -0.00092613
  73         0.01984592
  74         0.01905182
  75         0.01069003
  76        -0.01270028
  77        -0.00109682
  78         0.00613057
  79        -0.00038468
  80         0.04193033
  81         0.00113827
  82         0.00052176
  83        -0.00119330
  84         0.00005731
  85         0.04505578
  86         0.00210546
  87        -0.00119436
  88        -0.00123134
  89         0.00015545
  90        -0.01047999
  91        -0.01121642
  92         0.00383104
  93         0.00631418
  94        -0.00067052
Sym=    21a  
Ene=    -0.3898
Spin= Alpha
Occup=    1.94637
   1         0.00000004
   2        -0.00000002
   3        -0.00000133
   4        -0.00000331
   5        -0.00010171
   6        -0.00013323
   7        -0.00183866
   8        -0.01753915
   9        -0.02301264
  10        -0.31682636
  11        -0.00339086
  12        -0.00444840
  13        -0.06128821
  14         0.00202023
  15        -0.00275246
  16        -0.01384077
  17         0.00085629
  18        -0.00097465
  19         0.00000022
  20        -0.00000390
  21         0.00000357
  22         0.01261854
  23         0.01654662
  24         0.22769026
  25        -0.00135322
  26        -0.00177537
  27        -0.02437458
  28         0.00401561
  29        -0.01061927
  30        -0.02357417
  31         0.00112881
  32        -0.00209550
  33         0.00000021
  34        -0.00003327
  35         0.00000125
  36         0.02790068
  37         0.03658190
  38         0.50406929
  39        -0.00026860
  40        -0.00035612
  41        -0.00490148
  42        -0.00051363
  43        -0.01416403
  44         0.01485630
  45        -0.00186308
  46        -0.00020425
  47         0.00000012
  48         0.00001746
  49         0.00000431
  50         0.02863647
  51         0.03755899
  52         0.51724608
  53        -0.00025049
  54        -0.00032908
  55        -0.00454770
  56        -0.00296384
  57         0.01758347
  58         0.00995686
  59         0.00024595
  60         0.00184112
  61         0.00000007
  62         0.00001041
  63        -0.00000441
  64         0.01372508
  65         0.01799832
  66         0.24784484
  67        -0.00115717
  68        -0.00151428
  69        -0.02087161
  70         0.00299468
  71         0.00304740
  72        -0.02593550
  73         0.00205576
  74        -0.00122798
  75         0.00001192
  76        -0.00000416
  77         0.00029828
  78         0.00039202
  79         0.00539713
  80        -0.00000321
  81         0.00000311
  82         0.00068047
  83         0.00089157
  84         0.01228885
  85        -0.00000025
  86        -0.00000129
  87         0.00069926
  88         0.00091712
  89         0.01263072
  90         0.00000037
  91        -0.00000124
  92         0.00032809
  93         0.00043001
  94         0.00592281
Sym=    22a  
Ene=    -0.3108
Spin= Alpha
Occup=    1.90947
   1        -0.00000003
   2        -0.00000004
   3         0.00000655
   4         0.00000255
   5         0.00000945
   6         0.00001255
   7         0.00017187
   8         0.00115780
   9         0.00152836
  10         0.02086930
  11        -0.00002470
  12        -0.00003486
  13        -0.00044545
  14         0.00432640
  15        -0.06086841
  16         0.01229697
  17        -0.00425673
  18        -0.00375844
  19         0.00000026
  20         0.00000201
  21        -0.00000381
  22        -0.02949583
  23        -0.03867394
  24        -0.53262223
  25        -0.00200074
  26        -0.00262697
  27        -0.03621868
  28        -0.00192650
  29         0.01334799
  30         0.00501764
  31         0.00037146
  32         0.00125607
  33        -0.00000002
  34         0.00002081
  35        -0.00000077
  36        -0.01844828
  37        -0.02418852
  38        -0.33330847
  39        -0.00068936
  40        -0.00090128
  41        -0.01239763
  42         0.00423517
  43        -0.02209730
  44        -0.01654646
  45        -0.00001711
  46        -0.00253944
  47         0.00000014
  48         0.00000921
  49        -0.00000358
  50         0.01746704
  51         0.02291065
  52         0.31549889
  53         0.00065140
  54         0.00084953
  55         0.01174511
  56        -0.00139364
  57        -0.01595825
  58         0.02315659
  59        -0.00256631
  60         0.00012922
  61        -0.00000020
  62        -0.00000659
  63         0.00000122
  64         0.02916296
  65         0.03826729
  66         0.52705599
  67         0.00206861
  68         0.00270906
  69         0.03734723
  70        -0.00013384
  71         0.01151758
  72        -0.00771840
  73         0.00119765
  74         0.00040894
  75        -0.00000952
  76         0.00000337
  77        -0.00070507
  78        -0.00092507
  79        -0.01274221
  80         0.00000006
  81        -0.00000232
  82        -0.00046389
  83        -0.00060791
  84        -0.00837874
  85        -0.00000260
  86        -0.00000103
  87         0.00043986
  88         0.00057690
  89         0.00794504
  90         0.00000711
  91        -0.00000169
  92         0.00070193
  93         0.00092024
  94         0.01267683
Sym=    23a  
Ene=     0.1700
Spin= Alpha
Occup=    0.09651
   1         0.00000018
   2         0.00000149
   3         0.00000682
   4        -0.00000313
   5        -0.00081241
   6        -0.00106640
   7        -0.01468101
   8        -0.02840253
   9        -0.03726344
  10        -0.51318965
  11         0.00039503
  12         0.00052105
  13         0.00712129
  14         0.00525463
  15         0.00044476
  16        -0.04178848
  17         0.00306340
  18        -0.00230428
  19        -0.00000223
  20        -0.00001887
  21        -0.00000534
  22         0.04066088
  23         0.05330194
  24         0.73414980
  25        -0.00450389
  26        -0.00590063
  27        -0.08128096
  28        -0.00032741
  29        -0.00873389
  30         0.00923452
  31        -0.00115243
  32        -0.00011932
  33         0.00000145
  34         0.00002745
  35         0.00001724
  36        -0.02206552
  37        -0.02892531
  38        -0.39858930
  39         0.00044271
  40         0.00059812
  41         0.00807917
  42        -0.00379170
  43         0.02701814
  44         0.00934894
  45         0.00081238
  46         0.00249616
  47        -0.00000141
  48        -0.00002025
  49        -0.00001865
  50        -0.02122697
  51        -0.02783125
  52        -0.38329154
  53         0.00050481
  54         0.00065734
  55         0.00915424
  56        -0.00011913
  57        -0.02235007
  58         0.01796470
  59        -0.00254197
  60        -0.00062674
  61         0.00000014
  62         0.00000110
  63         0.00001132
  64         0.04005332
  65         0.05255130
  66         0.72376548
  67        -0.00400620
  68        -0.00527483
  69        -0.07251440
  70        -0.00220016
  71         0.01284543
  72         0.00756604
  73         0.00015998
  74         0.00136120
  75         0.00000084
  76        -0.00000504
  77         0.00049913
  78         0.00065442
  79         0.00901426
  80        -0.00000894
  81         0.00000275
  82        -0.00027596
  83        -0.00036144
  84        -0.00497986
  85         0.00000685
  86        -0.00000003
  87        -0.00026009
  88        -0.00034080
  89        -0.00469431
  90        -0.00000061
  91        -0.00000190
  92         0.00050533
  93         0.00066288
  94         0.00912934
Sym=    24a  
Ene=     0.4782
Spin= Alpha
Occup=    0.02735
   1         0.00403582
   2         0.01093641
   3        -0.42243611
   4        -0.38675036
   5         0.01508596
   6         0.05379271
   7        -0.00473972
   8         0.26766163
   9         0.96609704
  10        -0.08494485
  11        -0.04411472
  12        -0.11183233
  13         0.01055882
  14        -0.16597326
  15        -0.01525212
  16        -0.01892067
  17         0.01303623
  18        -0.02060872
  19         0.07204154
  20         0.61146028
  21        -0.11385271
  22        -0.37869128
  23         0.60781004
  24        -0.02315016
  25         0.07512159
  26        -0.17705774
  27         0.00869487
  28        -0.01324098
  29         0.00505807
  30        -0.00194073
  31        -0.04442365
  32        -0.05312526
  33         0.00360395
  34         0.00137902
  35         0.01171459
  36         0.03512453
  37        -0.00809413
  38        -0.00136482
  39         0.00533852
  40         0.00413245
  41        -0.00059495
  42         0.00423808
  43         0.00126475
  44        -0.00037638
  45        -0.01363104
  46        -0.00139466
  47         0.00609995
  48         0.00454145
  49        -0.01856400
  50        -0.03636079
  51        -0.00324538
  52         0.00225458
  53        -0.01350607
  54        -0.00385242
  55         0.00102646
  56         0.00495305
  57         0.00018671
  58        -0.00081191
  59        -0.01058634
  60         0.01198775
  61         0.08617605
  62         0.72070206
  63        -0.14359655
  64         0.65038681
  65         0.52164875
  66        -0.07385641
  67        -0.15020932
  68        -0.17706547
  69         0.02115602
  70        -0.01724703
  71        -0.00824767
  72        -0.00660608
  73         0.00537567
  74         0.08598806
  75        -0.10225169
  76         0.01610612
  77        -0.00252517
  78         0.00721238
  79        -0.00038387
  80         0.02974943
  81        -0.00149828
  82         0.00444724
  83         0.00230222
  84        -0.00041325
  85         0.03611884
  86        -0.00543720
  87        -0.00362505
  88         0.00432935
  89        -0.00011379
  90        -0.10074932
  91         0.02272841
  92         0.00661192
  93         0.00749257
  94        -0.00091011
Sym=    25a  
Ene=     0.3615
Spin= Alpha
Occup=    0.03097
   1        -0.00216313
   2        -0.01480248
   3        -0.01414883
   4         0.07159395
   5         0.05420228
   6        -0.01356388
   7        -0.00201546
   8         1.11594862
   9        -0.26802991
  10        -0.04230901
  11        -0.15595724
  12         0.03811409
  13         0.00586451
  14         0.03473887
  15        -0.00315972
  16         0.00137103
  17         0.01689472
  18         0.07627532
  19        -0.07087142
  20        -0.60954864
  21         0.13267979
  22         0.35118892
  23        -0.66680058
  24         0.02896104
  25        -0.07086711
  26         0.19581585
  27        -0.01029917
  28         0.01340032
  29        -0.00539155
  30        -0.00086750
  31         0.02221438
  32         0.07471676
  33        -0.00650226
  34         0.01357115
  35         0.05448814
  36         0.02502623
  37         0.05970148
  38        -0.00571315
  39        -0.03574060
  40         0.00821522
  41         0.00138822
  42        -0.00372233
  43        -0.00171143
  44         0.00006199
  45         0.01363034
  46         0.00819139
  47         0.00701520
  48        -0.01088540
  49        -0.06446733
  50         0.00898959
  51        -0.06673775
  52         0.00433930
  53        -0.03619474
  54        -0.00020120
  55         0.00201737
  56         0.00310797
  57        -0.00042594
  58        -0.00058189
  59        -0.00364103
  60         0.01270170
  61         0.06267529
  62         0.53521474
  63        -0.12440898
  64         0.47885975
  65         0.44584694
  66        -0.05888256
  67        -0.11316181
  68        -0.14777458
  69         0.01700635
  70        -0.01052524
  71        -0.00736871
  72        -0.00262202
  73         0.03105871
  74         0.06346985
  75         0.00412886
  76        -0.03184991
  77         0.00580207
  78        -0.01193007
  79         0.00054523
  80        -0.04961234
  81         0.00884783
  82        -0.00171190
  83        -0.00169906
  84         0.00021788
  85         0.04561890
  86        -0.01061117
  87        -0.00037518
  88         0.00177188
  89        -0.00010779
  90         0.01079538
  91         0.03209317
  92         0.00902301
  93         0.00831927
  94        -0.00110384
Sym=    26a  
Ene=     0.2828
Spin= Alpha
Occup=    0.05970
   1         0.00000002
   2         0.00000001
   3        -0.00000330
   4        -0.00000230
   5         0.00003224
   6         0.00004397
   7         0.00059468
   8         0.00010424
   9         0.00016544
  10         0.00210422
  11        -0.00042839
  12        -0.00056961
  13        -0.00781443
  14         0.00700378
  15        -0.11067954
  16         0.02914739
  17        -0.00823297
  18        -0.00645499
  19         0.00000312
  20         0.00003260
  21         0.00000487
  22        -0.02715043
  23        -0.03558091
  24        -0.49002083
  25         0.00144675
  26         0.00188996
  27         0.02612212
  28         0.00462016
  29         0.00969901
  30        -0.04383338
  31         0.00372325
  32        -0.00174632
  33        -0.00000391
  34        -0.00004173
  35        -0.00002740
  36         0.04128280
  37         0.05414172
  38         0.74593805
  39         0.00301704
  40         0.00393483
  41         0.05432461
  42        -0.00182404
  43         0.01234897
  44         0.00486359
  45         0.00032815
  46         0.00117340
  47        -0.00000285
  48        -0.00001634
  49         0.00001623
  50        -0.04185771
  51        -0.05491005
  52        -0.75621775
  53        -0.00282083
  54        -0.00370821
  55        -0.05111586
  56         0.00016465
  57         0.00984739
  58        -0.00884947
  59         0.00118801
  60         0.00022592
  61         0.00000042
  62         0.00000688
  63        -0.00000177
  64         0.02832684
  65         0.03716246
  66         0.51187774
  67        -0.00170348
  68        -0.00223750
  69        -0.03079864
  70        -0.00702600
  71         0.02298395
  72         0.03789242
  73        -0.00148843
  74         0.00379794
  75        -0.00000190
  76         0.00000504
  77        -0.00013362
  78        -0.00017533
  79        -0.00241125
  80         0.00001456
  81         0.00000180
  82         0.00039332
  83         0.00051462
  84         0.00709953
  85         0.00000494
  86         0.00000129
  87        -0.00039661
  88        -0.00051997
  89        -0.00715701
  90        -0.00000292
  91        -0.00000440
  92         0.00015421
  93         0.00020185
  94         0.00278303
Sym=    27a  
Ene=     0.7884
Spin= Alpha
Occup=    0.00862
   1        -0.00000229
   2        -0.00001696
   3        -0.00005305
   4         0.00002960
   5        -0.00106750
   6        -0.00140739
   7        -0.01931985
   8        -0.01033639
   9        -0.01364633
  10        -0.18732512
  11         0.00986856
  12         0.01301326
  13         0.17853470
  14        -0.03118000
  15         0.73911457
  16        -0.31775869
  17         0.06396510
  18         0.03618530
  19        -0.00000684
  20        -0.00003463
  21         0.00006541
  22        -0.03611085
  23        -0.04739243
  24        -0.65188555
  25         0.03205017
  26         0.04209195
  27         0.57912243
  28        -0.01555200
  29        -0.05033178
  30         0.16105699
  31        -0.01447818
  32         0.00533487
  33         0.00000018
  34        -0.00000930
  35        -0.00001040
  36         0.00569871
  37         0.00747802
  38         0.10319273
  39        -0.00638472
  40        -0.00840051
  41        -0.11534096
  42         0.00453374
  43        -0.01208130
  44        -0.02658862
  45         0.00126879
  46        -0.00236583
  47        -0.00000254
  48        -0.00000508
  49         0.00009879
  50        -0.00708386
  51        -0.00927839
  52        -0.12796683
  53         0.00681104
  54         0.00901372
  55         0.12342059
  56        -0.00339916
  57         0.00664619
  58         0.02169563
  59        -0.00121088
  60         0.00169978
  61         0.00000373
  62         0.00001602
  63        -0.00007337
  64         0.02401880
  65         0.03149256
  66         0.43375326
  67        -0.02267914
  68        -0.02962949
  69        -0.40926522
  70         0.01419376
  71        -0.03440168
  72        -0.08568976
  73         0.00433167
  74        -0.00730909
  75        -0.00000336
  76         0.00002112
  77        -0.00090821
  78        -0.00119495
  79        -0.01648805
  80         0.00000627
  81        -0.00000918
  82         0.00060988
  83         0.00080285
  84         0.01104622
  85        -0.00000642
  86         0.00000897
  87        -0.00060720
  88        -0.00079833
  89        -0.01096435
  90        -0.00002838
  91        -0.00000706
  92         0.00075614
  93         0.00099234
  94         0.01369729
Sym=    28a  
Ene=     0.1942
Spin= Alpha
Occup=    0.00000
   1         0.00356819
   2         0.02254864
   3        -0.01927538
   4        -0.26053380
   5        -0.00086307
   6        -0.00552683
   7         0.00044914
   8         0.00010161
   9         0.00072300
  10        -0.00005870
  11         0.04794653
  12         0.28517307
  13        -0.02335915
  14        -0.00183470
  15         0.00079714
  16        -0.00331847
  17        -0.03335229
  18         0.01181735
  19         0.01585806
  20        -0.07982971
  21        -0.44540530
  22        -0.15723661
  23         0.00506640
  24         0.00834384
  25        -0.37192784
  26        -0.06916910
  27         0.02560863
  28         0.00060940
  29        -0.00027649
  30         0.00072652
  31         0.00788629
  32        -0.00136331
  33         0.02690780
  34        -0.06903654
  35        -0.86150447
  36        -0.07498854
  37         0.18450298
  38        -0.00924775
  39        -0.16442795
  40         0.28401959
  41        -0.01152158
  42         0.00477381
  43         0.00097262
  44         0.00063351
  45        -0.00316365
  46        -0.00460205
  47         0.02700564
  48        -0.06826999
  49        -0.86607670
  50         0.13319236
  51         0.14817900
  52        -0.01812774
  53         0.24934038
  54         0.21005980
  55        -0.02904953
  56         0.00488034
  57         0.00003456
  58         0.00034099
  59         0.00049706
  60         0.00560222
  61         0.01614875
  62        -0.08081835
  63        -0.45476583
  64         0.15163422
  65        -0.05062566
  66        -0.00472013
  67         0.33252657
  68        -0.19776991
  69        -0.00404352
  70         0.00064083
  71        -0.00002410
  72         0.00080030
  73         0.00682374
  74        -0.00397467
  75         0.05230057
  76         0.89785500
  77        -0.00801541
  78        -0.00022052
  79         0.00046012
  80         0.04980266
  81         1.06479825
  82        -0.00471294
  83         0.01283903
  84        -0.00067139
  85         0.04942745
  86         1.06565666
  87         0.00881757
  88         0.01048609
  89        -0.00124929
  90         0.05246988
  91         0.91342051
  92         0.00764997
  93        -0.00300722
  94        -0.00020523
Sym=    29a  
Ene=     0.2257
Spin= Alpha
Occup=    0.00000
   1         0.00000784
   2        -0.00001732
   3        -0.00125246
   4        -0.00586199
   5         0.00809926
   6        -0.00142453
   7        -0.00034511
   8         0.04693927
   9        -0.00886822
  10        -0.00195591
  11        -0.10774987
  12         0.02319780
  13         0.00428294
  14         0.00063087
  15        -0.00070292
  16        -0.00017300
  17         0.00296809
  18         0.00832130
  19        -0.02429967
  20         0.05736371
  21         0.91876448
  22         0.25014599
  23         0.00772422
  24        -0.01442044
  25         0.72263116
  26         0.12815830
  27        -0.04930274
  28        -0.00707077
  29        -0.00133373
  30        -0.00007730
  31         0.01142884
  32         0.00024540
  33        -0.01620456
  34         0.01801899
  35         0.71363496
  36         0.04991723
  37        -0.13556014
  38         0.00708356
  39         0.00022915
  40        -0.35887154
  41         0.02604743
  42        -0.00555562
  43        -0.00013813
  44        -0.00028936
  45         0.00095608
  46        -0.00619304
  47         0.01575918
  48        -0.01631501
  49        -0.69678947
  50         0.08921332
  51         0.10728464
  52        -0.01273286
  53         0.10953492
  54         0.32760794
  55        -0.02984440
  56         0.00539201
  57         0.00106333
  58         0.00056042
  59        -0.00467920
  60        -0.00387652
  61         0.02422653
  62        -0.05827391
  63        -0.91842932
  64         0.23490154
  65        -0.09310386
  66        -0.00623555
  67         0.65025273
  68        -0.37113749
  69        -0.00905645
  70         0.00718785
  71         0.00060259
  72        -0.00016016
  73        -0.00869187
  74         0.00783298
  75         0.00500911
  76        -1.51764524
  77         0.02249850
  78         0.00073470
  79        -0.00129944
  80         0.00592576
  81        -0.82375645
  82         0.00684222
  83        -0.01174844
  84         0.00047449
  85        -0.00563702
  86         0.79411730
  87         0.01012185
  88         0.00840973
  89        -0.00117142
  90        -0.00530563
  91         1.53411986
  92         0.02107785
  93        -0.00851930
  94        -0.00054770
Sym=    30a  
Ene=     0.2435
Spin= Alpha
Occup=    0.00000
   1        -0.01127152
   2        -0.07522389
   3        -0.08855012
   4         0.92104455
   5         0.00010873
   6         0.00132027
   7        -0.00010200
   8         0.01458941
   9         0.08929544
  10        -0.00729059
  11        -0.08640640
  12        -0.49635517
  13         0.04081508
  14         0.00489979
  15         0.00056608
  16         0.00014060
  17        -0.00470076
  18         0.00239898
  19        -0.01216615
  20         0.11711844
  21         0.42831979
  22         0.17683785
  23        -0.04826855
  24        -0.00629270
  25         0.94609547
  26        -0.21119788
  27        -0.03702989
  28         0.00152581
  29        -0.00094347
  30         0.00063281
  31         0.01105821
  32         0.00656360
  33         0.01596093
  34        -0.07623533
  35        -0.68067367
  36        -0.10216292
  37         0.11684234
  38        -0.00283093
  39        -0.44076774
  40         0.56627015
  41        -0.01672462
  42         0.00552924
  43        -0.00098261
  44         0.00042695
  45         0.00771297
  46         0.01492283
  47         0.01635698
  48        -0.07988508
  49        -0.69475256
  50         0.13791047
  51         0.07783747
  52        -0.01328094
  53         0.61809084
  54         0.40047887
  55        -0.06327554
  56         0.00536473
  57         0.00193270
  58         0.00134362
  59        -0.00365413
  60        -0.01660097
  61        -0.01198808
  62         0.11674617
  63         0.41233455
  64        -0.18050607
  65         0.01378916
  66         0.00899227
  67        -0.95875518
  68         0.12673090
  69         0.04385617
  70         0.00157894
  71         0.00078295
  72         0.00117525
  73         0.00428591
  74        -0.01187585
  75        -0.00672306
  76        -1.44738415
  77         0.01555362
  78         0.00243446
  79        -0.00103827
  80        -0.03474990
  81         1.19422227
  82        -0.00984017
  83         0.01568981
  84        -0.00059424
  85        -0.03449449
  86         1.23187366
  87         0.01487148
  88         0.01166539
  89        -0.00167029
  90        -0.00762345
  91        -1.43505495
  92        -0.01357615
  93         0.00738391
  94         0.00021551
Sym=    31a  
Ene=     0.2532
Spin= Alpha
Occup=    0.00000
   1        -0.00017750
   2        -0.00127407
   3        -0.00309031
   4         0.00777882
   5         0.01355646
   6        -0.00239411
   7        -0.00057684
   8         0.08793253
   9        -0.01489956
  10        -0.00378962
  11         0.03032370
  12        -0.00819433
  13        -0.00108370
  14         0.00080025
  15         0.00152479
  16         0.00052860
  17        -0.00589094
  18        -0.01531294
  19        -0.00342025
  20         0.11141579
  21        -0.22420063
  22         0.09324877
  23        -0.03184054
  24        -0.00284896
  25         0.85613027
  26         0.10604536
  27        -0.05507383
  28         0.00386352
  29         0.00137571
  30         0.00166410
  31         0.00352493
  32        -0.01638660
  33         0.00317967
  34        -0.25820233
  35         0.05810282
  36        -0.01784691
  37         0.13363857
  38        -0.00872306
  39        -0.43725744
  40         1.39081431
  41        -0.07676191
  42        -0.01064093
  43        -0.00251276
  44        -0.00072068
  45         0.01533123
  46         0.00871752
  47        -0.00302516
  48         0.25717562
  49        -0.06624873
  50        -0.06078535
  51        -0.11915492
  52         0.01201137
  53        -0.87407318
  54        -1.15334035
  55         0.13213458
  56         0.01088861
  57         0.00019903
  58         0.00001722
  59        -0.00617760
  60         0.01636431
  61         0.00301178
  62        -0.10946803
  63         0.23549846
  64         0.09572102
  65        -0.00163930
  66        -0.00517617
  67         0.75652722
  68        -0.39361466
  69        -0.01328706
  70        -0.00390182
  71         0.00112031
  72        -0.00086701
  73        -0.01319772
  74        -0.01052070
  75        -0.05839649
  76        -1.02066822
  77         0.00551318
  78        -0.00710915
  79         0.00021105
  80         0.03627635
  81         1.81695596
  82        -0.00400011
  83         0.01364024
  84        -0.00076907
  85        -0.03657535
  86        -1.80511179
  87        -0.00818434
  88        -0.01132793
  89         0.00127526
  90         0.05823233
  91         0.99805026
  92         0.00740859
  93         0.00492961
  94        -0.00076774
Sym=    32a  
Ene=     0.4092
Spin= Alpha
Occup=    0.00000
   1        -0.01322643
   2        -0.09131025
   3        -0.18087889
   4         0.55329749
   5         0.00241094
   6         0.01624390
   7        -0.00131234
   8         0.01719364
   9         0.09793279
  10        -0.00805559
  11        -0.12879683
  12        -0.80193447
  13         0.06534755
  14         0.00961946
  15        -0.00351128
  16         0.01527329
  17         0.15161108
  18        -0.05399441
  19         0.04748121
  20        -0.06264401
  21        -2.29067605
  22         0.09741564
  23         0.14885970
  24        -0.01619177
  25         1.24046817
  26         1.22843409
  27        -0.15786497
  28         0.03332372
  29         0.00400826
  30         0.00211084
  31        -0.02358956
  32         0.00706889
  33        -0.03593437
  34         0.07977891
  35         2.07230135
  36         0.00208336
  37         0.20025070
  38        -0.01464494
  39         0.85979932
  40         1.30740207
  41        -0.14247620
  42        -0.01753787
  43        -0.00141948
  44        -0.00186238
  45         0.00128706
  46        -0.00475020
  47        -0.03641357
  48         0.08088945
  49         2.09695316
  50         0.06936375
  51         0.18861399
  52        -0.01754026
  53        -0.34708061
  54         1.52309526
  55        -0.09141335
  56        -0.01765463
  57        -0.00211341
  58        -0.00212073
  59         0.00374927
  60         0.00272942
  61         0.04681848
  62        -0.06345197
  63        -2.28032505
  64        -0.03942767
  65         0.17322089
  66        -0.01040331
  67        -0.74595040
  68         1.59181332
  69        -0.07428633
  70         0.03314210
  71         0.00373007
  72         0.00203718
  73        -0.02234122
  74         0.00970414
  75        -0.12463414
  76        -0.47447978
  77        -0.01553623
  78         0.00542819
  79         0.00046615
  80         0.06755383
  81         0.48302031
  82         0.01856658
  83        -0.00041502
  84        -0.00099794
  85         0.06883757
  86         0.48898710
  87        -0.01746144
  88         0.00575546
  89         0.00054888
  90        -0.12141105
  91        -0.47442054
  92         0.01621370
  93        -0.00008720
  94        -0.00089166
Sym=    33a  
Ene=     0.4395
Spin= Alpha
Occup=    0.00000
   1         0.00017335
   2         0.00145504
   3         0.00752815
   4         0.00655285
   5         0.02422457
   6        -0.00404682
   7        -0.00104630
   8         0.33036480
   9        -0.05698518
  10        -0.01414852
  11        -0.32421570
  12         0.04836012
  13         0.01441988
  14        -0.00292721
  15         0.00683601
  16         0.00184068
  17        -0.02813167
  18        -0.07625781
  19        -0.03680894
  20        -0.10417367
  21         1.07888045
  22         0.02505805
  23         0.12328372
  24        -0.01032943
  25        -1.14551626
  26        -0.67248496
  27         0.11223788
  28        -0.01316863
  29         0.00190418
  30        -0.00340529
  31        -0.03625188
  32        -0.01611704
  33         0.08314815
  34        -0.04337927
  35        -4.06263045
  36         0.18279601
  37        -0.15964067
  38         0.00146492
  39         2.32184421
  40        -1.60885117
  41        -0.01180462
  42         0.05088547
  43         0.00573715
  44         0.00673045
  45        -0.00302329
  46        -0.00889070
  47        -0.08288939
  48         0.04292693
  49         4.04327983
  50         0.22600087
  51         0.08467576
  52        -0.01865745
  53         2.73284104
  54         0.69995261
  55        -0.20217137
  56        -0.05084227
  57        -0.00404343
  58        -0.00618571
  59        -0.00353876
  60        -0.00927903
  61         0.03770837
  62         0.10742856
  63        -1.07789264
  64        -0.01663632
  65        -0.12585407
  66         0.01006029
  67        -0.85922157
  68         1.00498219
  69        -0.02540449
  70         0.01239567
  71         0.00284276
  72         0.00483362
  73         0.01742092
  74        -0.03564118
  75        -0.22034653
  76         0.66846651
  77        -0.00958989
  78        -0.02787361
  79         0.00255398
  80        -0.06844480
  81        -1.07481263
  82         0.00745873
  83         0.01900480
  84        -0.00179366
  85         0.06592448
  86         1.07310231
  87         0.00062587
  88        -0.02031722
  89         0.00144000
  90         0.22231505
  91        -0.66597537
  92         0.00009303
  93         0.02943243
  94        -0.00214310
Sym=    34a  
Ene=     0.5086
Spin= Alpha
Occup=    0.00000
   1         0.01982094
   2         0.11889496
   3        -0.11163498
   4        -2.30912621
   5        -0.01184295
   6        -0.06559112
   7         0.00541816
   8        -0.11213111
   9        -0.60421275
  10         0.05007892
  11         0.35553095
  12         2.02220957
  13        -0.16648775
  14         0.24722547
  15         0.02413448
  16         0.02937949
  17        -0.01872897
  18         0.01067123
  19        -0.09128964
  20        -0.30076855
  21         1.46196766
  22         0.14613320
  23        -0.34111233
  24         0.01669387
  25        -0.89996159
  26         1.38253034
  27        -0.05057152
  28        -0.04550364
  29        -0.00563426
  30        -0.00148770
  31         0.04544194
  32        -0.01747303
  33         0.01980502
  34         0.07303879
  35         0.05062124
  36         0.19369023
  37         0.13913824
  38        -0.02082860
  39         0.01736274
  40        -0.29899010
  41         0.02075962
  42        -0.01265548
  43        -0.00086295
  44        -0.00212703
  45        -0.00694748
  46         0.00034265
  47         0.01810098
  48         0.07382231
  49         0.13672264
  50        -0.13434737
  51         0.20135379
  52        -0.00718453
  53        -0.08073058
  54        -0.23370636
  55         0.02142564
  56        -0.01339457
  57        -0.00123054
  58        -0.00228320
  59        -0.00546408
  60         0.00327003
  61        -0.09127392
  62        -0.30850115
  63         1.41937270
  64        -0.25957163
  65        -0.27702926
  66         0.03445010
  67         1.29059053
  68         1.03110775
  69        -0.14625581
  70        -0.04542454
  71        -0.00572399
  72        -0.00147690
  73         0.04609811
  74        -0.01655870
  75         0.18373010
  76        -0.16875497
  77         0.02392365
  78         0.01401207
  79        -0.00234070
  80         0.19417053
  81        -0.15464424
  82        -0.01677632
  83        -0.01909072
  84         0.00231378
  85         0.19164946
  86        -0.12842383
  87         0.00954088
  88        -0.02381082
  89         0.00120159
  90         0.18781632
  91        -0.19098503
  92        -0.01821964
  93         0.02170977
  94        -0.00056922
Sym=    35a  
Ene=     0.5461
Spin= Alpha
Occup=    0.00000
   1         0.01518409
   2         0.11350688
   3         0.34533498
   4        -0.19369095
   5        -0.00544173
   6        -0.02903139
   7         0.00240848
   8        -0.03363689
   9        -0.17272108
  10         0.01439882
  11         0.05456873
  12         0.29937342
  13        -0.02475116
  14        -0.11083356
  15        -0.00254315
  16        -0.04036246
  17        -0.28292055
  18         0.10225237
  19         0.02468086
  20         0.01469018
  21        -0.25367842
  22         0.05792135
  23         0.20410300
  24        -0.01803921
  25         0.01487843
  26        -0.19032775
  27         0.01300761
  28        -0.07649177
  29        -0.01435293
  30         0.00185232
  31         0.14666769
  32        -0.01567125
  33         0.02496206
  34         0.10866490
  35         0.12895194
  36        -0.17751229
  37        -0.03470084
  38         0.01234240
  39         0.36801502
  40         0.33075007
  41        -0.04437687
  42        -0.06802274
  43         0.00284222
  44        -0.00685326
  45        -0.04730462
  46        -0.09320554
  47         0.02563121
  48         0.10995980
  49         0.10338128
  50         0.15670669
  51        -0.09513636
  52        -0.00176401
  53        -0.23123231
  54         0.41161362
  55        -0.01708793
  56        -0.06647955
  57        -0.01511993
  58        -0.01239639
  59         0.02336839
  60         0.10130480
  61         0.02427792
  62         0.01479093
  63        -0.22594866
  64         0.01589807
  65         0.21123096
  66        -0.01620848
  67        -0.07218494
  68        -0.19550784
  69         0.01817494
  70        -0.07760337
  71        -0.00818362
  72         0.00371373
  73         0.12235557
  74        -0.08319606
  75         0.63013111
  76        -0.73225421
  77         0.06804026
  78         0.00479387
  79        -0.00411536
  80         0.61568066
  81        -0.48762356
  82         0.04098148
  83        -0.04692595
  84         0.00113769
  85         0.61662315
  86        -0.49422753
  87        -0.05440292
  88        -0.02997544
  89         0.00518840
  90         0.63290300
  91        -0.72805348
  92        -0.06276775
  93         0.02789276
  94         0.00144948
Sym=    36a  
Ene=     0.5697
Spin= Alpha
Occup=    0.00000
   1         0.00231707
   2         0.01692375
   3         0.04513575
   4        -0.06629837
   5        -0.07747474
   6         0.01332028
   7         0.00332003
   8        -0.78641540
   9         0.13691229
  10         0.03357860
  11         0.28124485
  12        -0.03654137
  13        -0.01291089
  14        -0.00970763
  15        -0.00183335
  16        -0.00107588
  17         0.00751401
  18         0.00683772
  19         0.06336158
  20         0.07495658
  21        -3.28505371
  22         0.06283720
  23         0.17634804
  24        -0.01630915
  25         1.32298291
  26         2.16676791
  27        -0.23048187
  28         0.05494531
  29         0.00586860
  30         0.00666885
  31        -0.00634030
  32        -0.00280490
  33        -0.05646097
  34        -0.09710676
  35         2.21367583
  36         0.28007475
  37         0.08101348
  38        -0.02140235
  39         2.00187753
  40         2.56055904
  41        -0.29669720
  42        -0.02587872
  43        -0.00445320
  44        -0.00431360
  45         0.00404747
  46         0.02363194
  47         0.05917185
  48         0.11031171
  49        -2.23712901
  50         0.22818294
  51        -0.15799728
  52        -0.00118032
  53         1.02742670
  54        -3.12741029
  55         0.17021957
  56         0.02563528
  57         0.00027218
  58         0.00292916
  59         0.01187858
  60         0.02121312
  61        -0.06016896
  62        -0.06105395
  63         3.30398513
  64         0.00327676
  65        -0.20056629
  66         0.01440053
  67         0.52230508
  68        -2.47733902
  69         0.15097308
  70        -0.06039965
  71        -0.00548270
  72        -0.00719717
  73         0.00163766
  74        -0.00613158
  75        -0.22575082
  76        -0.41479269
  77        -0.03322024
  78         0.03087900
  79        -0.00040340
  80        -0.12695504
  81         0.58614746
  82         0.00384174
  83         0.00920360
  84        -0.00087942
  85         0.11989340
  86        -0.58274489
  87         0.00116298
  88        -0.01061858
  89         0.00070666
  90         0.22999467
  91         0.41804948
  92        -0.04324994
  93        -0.01672848
  94         0.00361017
Sym=    37a  
Ene=     0.6137
Spin= Alpha
Occup=    0.00000
   1         0.02266658
   2         0.18057486
   3         0.73437520
   4        -0.08931565
   5         0.01792308
   6         0.10540364
   7        -0.00864335
   8         0.16370806
   9         0.92142826
  10        -0.07594910
  11        -0.25139854
  12        -1.65077920
  13         0.13374721
  14        -0.06551354
  15        -0.00796476
  16        -0.00288306
  17         0.05797544
  18        -0.02147231
  19         0.10508038
  20         0.37385879
  21        -0.57932361
  22        -0.21619856
  23        -0.22457522
  24         0.02827099
  25         0.46427883
  26         0.03622086
  27        -0.02832867
  28        -0.05189941
  29        -0.01104967
  30        -0.01090603
  31         0.00255906
  32         0.08066238
  33         0.07239820
  34         0.30795884
  35        -0.38368860
  36         0.30820694
  37         0.30263001
  38        -0.03903958
  39        -0.64617422
  40        -0.46013149
  41         0.06918188
  42        -0.03442834
  43         0.00408829
  44        -0.00636115
  45        -0.06672556
  46        -0.05109613
  47         0.07188177
  48         0.30806278
  49        -0.34091123
  50        -0.19625822
  51         0.39862860
  52        -0.01806284
  53         0.37795426
  54        -0.54883288
  55         0.01890629
  56        -0.03423049
  57        -0.00818249
  58        -0.01026978
  59        -0.01910056
  60         0.08113299
  61         0.10619472
  62         0.37456623
  63        -0.66716677
  64         0.13000657
  65        -0.27873239
  66         0.01304582
  67        -0.40965170
  68         0.30523764
  69         0.00051421
  70        -0.05267659
  71         0.00229530
  72        -0.00679413
  73        -0.05013550
  74        -0.06322993
  75         0.36611205
  76        -0.27814371
  77         0.04778647
  78         0.02164061
  79        -0.00421573
  80         0.27343004
  81        -0.33665384
  82        -0.00372053
  83        -0.04941343
  84         0.00379274
  85         0.27207955
  86        -0.32709586
  87        -0.01339090
  88        -0.04738760
  89         0.00418229
  90         0.36511784
  91        -0.28509014
  92        -0.03704984
  93         0.03733768
  94        -0.00066068
Sym=    38a  
Ene=     0.6710
Spin= Alpha
Occup=    0.00000
   1        -0.03733322
   2        -0.27157357
   3        -0.71643741
   4         1.01083723
   5         0.14446727
   6         0.02260117
   7        -0.00964389
   8         1.17254790
   9         0.21289472
  10        -0.08042134
  11        -2.72566828
  12        -0.15206728
  13         0.16196767
  14         0.14346895
  15         0.01478678
  16         0.01413654
  17        -0.04132841
  18         0.01865028
  19         0.00135489
  20        -0.15754118
  21        -0.82943075
  22        -0.03932977
  23        -0.03030805
  24         0.00435271
  25         0.34894678
  26         1.75705617
  27        -0.14683237
  28        -0.04415791
  29        -0.00439808
  30        -0.00576597
  31        -0.00059459
  32         0.00224622
  33         0.01236620
  34         0.06039104
  35         0.53454314
  36         0.24779643
  37         0.16966108
  38        -0.02607046
  39         1.24423066
  40         0.77948149
  41        -0.12544991
  42        -0.00968838
  43         0.00045036
  44        -0.00155530
  45        -0.01201856
  46        -0.00987625
  47        -0.07124840
  48        -0.40549183
  49        -0.31225090
  50         0.16332550
  51        -0.35581526
  52         0.01674077
  53         0.95675060
  54        -1.13505925
  55         0.02951162
  56         0.02673499
  57         0.00133791
  58         0.00094704
  59        -0.01291334
  60         0.02681918
  61        -0.07477022
  62        -0.11702581
  63         0.85283519
  64        -0.10174220
  65         0.07821086
  66        -0.00007185
  67        -0.33442122
  68        -1.97353094
  69         0.16182625
  70         0.16021254
  71         0.01982588
  72         0.02168746
  73        -0.01702768
  74        -0.04654867
  75         0.43472457
  76        -0.42231996
  77         0.04802475
  78        -0.00530744
  79        -0.00227330
  80         0.20025096
  81        -0.06856193
  82         0.01704703
  83        -0.01087955
  84        -0.00015443
  85         0.09094006
  86        -0.27544899
  87         0.00738786
  88        -0.01607787
  89         0.00075709
  90        -0.45613826
  91         0.44641022
  92         0.07259292
  93        -0.01779011
  94        -0.00272587
Sym=    39a  
Ene=     0.6770
Spin= Alpha
Occup=    0.00000
   1        -0.08649875
   2        -0.62973708
   3        -1.67323920
   4         2.32009614
   5        -0.03963851
   6         0.11946350
   7        -0.00643337
   8        -0.32200290
   9         1.04677544
  10        -0.05774474
  11         0.82355606
  12        -1.59906901
  13         0.07006907
  14         0.31988042
  15         0.03391665
  16         0.03132881
  17        -0.09955203
  18         0.03428625
  19        -0.11313125
  20        -0.34910073
  21         0.40597501
  22         0.14660552
  23         0.04076455
  24        -0.01095219
  25        -0.18582403
  26        -0.98166123
  27         0.08144575
  28         0.18773509
  29         0.01199161
  30         0.02161183
  31         0.02172359
  32         0.06751005
  33        -0.09713388
  34        -0.54601513
  35         0.14866405
  36        -0.15291228
  37        -0.24352732
  38         0.02630714
  39        -0.51177440
  40        -0.20229861
  41         0.04283539
  42         0.03200645
  43         0.00754968
  44         0.00185305
  45        -0.04895567
  46        -0.02402379
  47        -0.05574090
  48        -0.33382935
  49         0.41189180
  50        -0.08526592
  51        -0.01137079
  52         0.00567457
  53        -0.30478496
  54         0.44808251
  55        -0.01573145
  56         0.01404122
  57        -0.00120679
  58        -0.00195764
  59        -0.01552257
  60         0.04702058
  61        -0.07325318
  62        -0.34075997
  63        -0.23830761
  64        -0.05801322
  65         0.01888217
  66         0.00205820
  67         0.04509103
  68         0.47110789
  69        -0.03696028
  70         0.09221283
  71         0.01340216
  72         0.01305925
  73        -0.01777273
  74        -0.04759759
  75        -0.25093696
  76         0.25012052
  77        -0.06189898
  78         0.00589701
  79         0.00299825
  80         0.30242966
  81        -0.42621385
  82        -0.00217110
  83        -0.02600912
  84         0.00201280
  85         0.36930695
  86        -0.37940922
  87        -0.02145316
  88        -0.02114215
  89         0.00272435
  90         0.16488567
  91        -0.15441007
  92         0.00345982
  93        -0.00172831
  94        -0.00006398
Sym=    40a  
Ene=     0.6778
Spin= Alpha
Occup=    0.00000
   1         0.00002505
   2         0.00018247
   3         0.00048544
   4        -0.00066037
   5         0.00844286
   6         0.01101719
   7         0.15226262
   8         0.07844213
   9         0.10240125
  10         1.41492896
  11        -0.08314989
  12        -0.10807975
  13        -1.49554277
  14         0.03548495
  15        -0.02241597
  16        -0.26356275
  17         0.01796843
  18        -0.01638059
  19         0.00003773
  20         0.00011279
  21        -0.00014498
  22         0.02350247
  23         0.03086209
  24         0.42549004
  25        -0.02250638
  26        -0.02916333
  27        -0.40750656
  28         0.00491469
  29        -0.09668457
  30         0.03446018
  31        -0.00785199
  32        -0.00515062
  33         0.00003486
  34         0.00018054
  35        -0.00013524
  36         0.02264987
  37         0.02970932
  38         0.40784421
  39        -0.02048563
  40        -0.02720807
  41        -0.37510883
  42        -0.00371842
  43        -0.02092782
  44         0.04522387
  45        -0.00443327
  46         0.00101138
  47         0.00000856
  48         0.00007232
  49        -0.00001244
  50         0.02285862
  51         0.02989778
  52         0.41230173
  53        -0.01951787
  54        -0.02603390
  55        -0.35688649
  56        -0.00894468
  57         0.03387648
  58         0.04464137
  59        -0.00137246
  60         0.00495880
  61         0.00001796
  62         0.00009402
  63         0.00006614
  64         0.02874701
  65         0.03769358
  66         0.51900892
  67        -0.02932454
  68        -0.03860264
  69        -0.52816927
  70        -0.00864312
  71         0.10136091
  72        -0.00924965
  73         0.00627774
  74         0.00690499
  75         0.00010710
  76        -0.00010262
  77        -0.00005532
  78        -0.00010252
  79        -0.00141313
  80        -0.00007793
  81         0.00009515
  82         0.00057248
  83         0.00075493
  84         0.01030164
  85        -0.00011817
  86         0.00014818
  87         0.00048380
  88         0.00063001
  89         0.00858848
  90        -0.00008820
  91         0.00007041
  92         0.00008279
  93         0.00010127
  94         0.00143105
Sym=    41a  
Ene=     0.6970
Spin= Alpha
Occup=    0.00000
   1         0.00000200
   2         0.00001429
   3         0.00003698
   4        -0.00007848
   5        -0.00560636
   6        -0.00736255
   7        -0.10134029
   8        -0.04725175
   9        -0.06206205
  10        -0.85408890
  11         0.06830683
  12         0.08978225
  13         1.23549540
  14        -0.05692403
  15         0.11174325
  16         0.36377377
  17        -0.02029345
  18         0.02851281
  19         0.00000304
  20        -0.00000457
  21        -0.00003108
  22         0.01464336
  23         0.01918965
  24         0.26450172
  25        -0.01680916
  26        -0.02192959
  27        -0.30374470
  28         0.00661317
  29         0.04087897
  30        -0.08342219
  31         0.00832702
  32        -0.00168259
  33         0.00000402
  34         0.00002234
  35        -0.00001023
  36         0.03630262
  37         0.04759081
  38         0.65526622
  39        -0.03888280
  40        -0.05107683
  41        -0.70389390
  42        -0.00247889
  43        -0.02993817
  44         0.04240274
  45        -0.00473712
  46         0.00018626
  47         0.00000178
  48         0.00001223
  49         0.00000552
  50         0.03774710
  51         0.04947819
  52         0.68160071
  53        -0.03622932
  54        -0.04764999
  55        -0.65550509
  56        -0.01093728
  57         0.03967377
  58         0.05596549
  59        -0.00187978
  60         0.00602546
  61        -0.00000291
  62        -0.00000898
  63         0.00006297
  64         0.02914102
  65         0.03823725
  66         0.52672821
  67        -0.03632915
  68        -0.04773370
  69        -0.65657691
  70         0.01669932
  71        -0.06414394
  72        -0.08276730
  73         0.00248477
  74        -0.00931290
  75         0.00003326
  76        -0.00003662
  77         0.00104919
  78         0.00137035
  79         0.01886402
  80        -0.00001514
  81         0.00001972
  82         0.00049398
  83         0.00064903
  84         0.00890796
  85        -0.00000967
  86         0.00000864
  87         0.00029185
  88         0.00037944
  89         0.00524140
  90        -0.00001311
  91         0.00002059
  92         0.00137899
  93         0.00180533
  94         0.02489106
Sym=    42a  
Ene=     0.7175
Spin= Alpha
Occup=    0.00000
   1        -0.00082729
   2        -0.00603170
   3        -0.01684411
   4         0.02239365
   5        -0.06882576
   6         0.01396892
   7         0.00279161
   8        -0.55126171
   9         0.11491334
  10         0.02211617
  11         0.66326888
  12        -0.13763647
  13        -0.02672456
  14         0.00163698
  15        -0.00510814
  16        -0.00159240
  17         0.01945339
  18         0.05713933
  19         0.09201472
  20         0.52500773
  21         0.33444400
  22        -0.16382268
  23        -0.37425998
  24         0.03617677
  25        -0.39476248
  26         0.06494876
  27         0.01727451
  28        -0.00530235
  29        -0.00270410
  30         0.00089464
  31         0.02821835
  32         0.00858647
  33         0.05406425
  34        -0.21367096
  35        -1.29746712
  36         0.38380686
  37         0.27457700
  38        -0.04113054
  39         0.12052435
  40        -1.55387576
  41         0.10599200
  42        -0.14165536
  43        -0.01180034
  44        -0.01560904
  45         0.00769825
  46        -0.03193386
  47        -0.05855198
  48         0.19163978
  49         1.31141020
  50         0.26417146
  51        -0.39480546
  52         0.01407139
  53         0.64494729
  54         1.41819121
  55        -0.13874301
  56         0.14347117
  57         0.01650923
  58         0.01718204
  59        -0.02624142
  60        -0.01607253
  61        -0.09579183
  62        -0.53921408
  63        -0.32119547
  64        -0.02842457
  65         0.41460601
  66        -0.02861968
  67        -0.39350684
  68         0.06126521
  69         0.01746767
  70         0.00954983
  71         0.00019751
  72        -0.00133212
  73        -0.01723106
  74         0.02304911
  75         0.03970547
  76         0.18736772
  77         0.00247042
  78         0.01665045
  79        -0.00134557
  80         0.76588606
  81        -1.32285321
  82         0.06503052
  83        -0.09616819
  84         0.00337669
  85        -0.75911889
  86         1.31221745
  87         0.09341105
  88         0.06755216
  89        -0.01007885
  90        -0.04175517
  91        -0.18459459
  92        -0.00231924
  93        -0.01666388
  94         0.00133537
Sym=    43a  
Ene=     0.7380
Spin= Alpha
Occup=    0.00000
   1         0.00816825
   2         0.06065846
   3         0.17352596
   4         0.01067762
   5        -0.00062231
   6        -0.00751747
   7         0.00057968
   8         0.00169250
   9        -0.02907266
  10         0.00202419
  11        -0.00914435
  12        -0.02150994
  13         0.00210905
  14        -0.05139540
  15        -0.00104333
  16        -0.01917202
  17        -0.13667640
  18         0.04879580
  19        -0.05503633
  20        -0.47830583
  21        -0.12934355
  22         0.05736140
  23         0.31354557
  24        -0.02608750
  25         0.39245754
  26        -0.06429635
  27        -0.01695149
  28        -0.02734043
  29        -0.00549026
  30        -0.00388360
  31         0.01551656
  32         0.02768857
  33        -0.19046884
  34        -0.62485702
  35         0.96341019
  36         0.61694260
  37        -0.14832916
  38        -0.02363958
  39        -0.63141883
  40         0.69283577
  41        -0.01494419
  42         0.17559290
  43         0.01552122
  44         0.02347880
  45         0.02046827
  46         0.00449040
  47        -0.19060722
  48        -0.62920590
  49         0.94829021
  50        -0.63006461
  51         0.07418272
  52         0.02958391
  53         0.81692242
  54         0.42148507
  55        -0.07596896
  56         0.17474715
  57         0.01719703
  58         0.02397203
  59         0.01344027
  60        -0.01445643
  61        -0.05550002
  62        -0.47691046
  63        -0.11849177
  64         0.05152505
  65         0.31328061
  66        -0.02533857
  67        -0.38070589
  68         0.07020316
  69         0.01562072
  70        -0.02665810
  71         0.00010156
  72        -0.00204565
  73        -0.00604904
  74        -0.03176037
  75         0.48773121
  76        -0.67522421
  77         0.04831290
  78         0.03980332
  79        -0.00556288
  80        -0.50565768
  81         0.72628908
  82        -0.02402833
  83         0.09948559
  84        -0.00588785
  85        -0.50040185
  86         0.71419119
  87         0.05565873
  88         0.08456532
  89        -0.00922426
  90         0.48334408
  91        -0.66706720
  92        -0.03118739
  93         0.05404848
  94        -0.00219968
Sym=    44a  
Ene=     0.7461
Spin= Alpha
Occup=    0.00000
   1         0.00000223
   2         0.00001679
   3         0.00005101
   4         0.00001780
   5        -0.00045012
   6        -0.00059142
   7        -0.00815822
   8        -0.00500871
   9        -0.00656184
  10        -0.09069927
  11         0.00127870
  12         0.00167722
  13         0.02372128
  14        -0.01150747
  15         0.25296039
  16        -0.10228470
  17         0.02137097
  18         0.01276723
  19        -0.00002142
  20        -0.00016587
  21        -0.00005805
  22         0.02932006
  23         0.03853183
  24         0.52933843
  25        -0.03061516
  26        -0.04033783
  27        -0.55566881
  28         0.01208017
  29        -0.12568197
  30         0.00051079
  31        -0.00697352
  32        -0.00914115
  33        -0.00006048
  34        -0.00018943
  35         0.00035812
  36         0.04782783
  37         0.06243795
  38         0.86090071
  39        -0.06661570
  40        -0.08685425
  41        -1.20024060
  42        -0.01083581
  43         0.01886617
  44         0.07152473
  45        -0.00415458
  46         0.00538160
  47        -0.00005481
  48        -0.00020180
  49         0.00021122
  50        -0.02602058
  51        -0.03385117
  52        -0.46663562
  53         0.03532978
  54         0.04607302
  55         0.63409232
  56         0.00388967
  57         0.05544099
  58        -0.07257972
  59         0.00835188
  60        -0.00001159
  61        -0.00001143
  62        -0.00011215
  63         0.00000476
  64        -0.04147800
  65        -0.05437164
  66        -0.74991153
  67         0.05469456
  68         0.07187361
  69         0.99027768
  70         0.00660915
  71        -0.08833514
  72         0.01513897
  73        -0.00598190
  74        -0.00561950
  75         0.00013960
  76        -0.00021426
  77        -0.00096669
  78        -0.00127558
  79        -0.01774052
  80        -0.00018147
  81         0.00026445
  82        -0.00008754
  83        -0.00006824
  84        -0.00140404
  85        -0.00011452
  86         0.00014415
  87        -0.00011760
  88        -0.00014858
  89        -0.00234272
  90         0.00015875
  91        -0.00020310
  92         0.00070971
  93         0.00096436
  94         0.01304667
Sym=    45a  
Ene=     0.7580
Spin= Alpha
Occup=    0.00000
   1         0.00000149
   2         0.00001078
   3         0.00002935
   4        -0.00005855
   5        -0.00139838
   6        -0.00182612
   7        -0.02514747
   8        -0.00623840
   9        -0.00812957
  10        -0.11181466
  11         0.03639139
  12         0.04754490
  13         0.65479608
  14        -0.02432941
  15         0.12236058
  16         0.09858435
  17        -0.00040814
  18         0.01444238
  19         0.00001861
  20         0.00009388
  21        -0.00001586
  22         0.04104362
  23         0.05382885
  24         0.74204505
  25        -0.07398445
  26        -0.09708262
  27        -1.33641354
  28        -0.00518333
  29         0.00785270
  30         0.03486270
  31        -0.00209713
  32         0.00252074
  33         0.00001385
  34         0.00000678
  35        -0.00010940
  36        -0.01841497
  37        -0.02411505
  38        -0.33271756
  39         0.03184785
  40         0.04162899
  41         0.57561723
  42        -0.00963580
  43         0.09987502
  44        -0.00038419
  45         0.00554386
  46         0.00726292
  47         0.00000652
  48         0.00006525
  49         0.00000787
  50        -0.04246712
  51        -0.05578084
  52        -0.76795648
  53         0.07392338
  54         0.09709411
  55         1.33630555
  56         0.00567565
  57        -0.07869541
  58         0.01533317
  59        -0.00546571
  60        -0.00489893
  61        -0.00001134
  62        -0.00005146
  63         0.00006061
  64         0.03469197
  65         0.04556979
  66         0.62740450
  67        -0.07140987
  68        -0.09374606
  69        -1.29190266
  70        -0.00113171
  71        -0.05035913
  72         0.04729073
  73        -0.00622998
  74        -0.00102882
  75         0.00000594
  76         0.00001006
  77        -0.00020900
  78        -0.00027827
  79        -0.00381249
  80         0.00011568
  81        -0.00017055
  82         0.00053398
  83         0.00066940
  84         0.00946443
  85        -0.00008566
  86         0.00010105
  87         0.00048835
  88         0.00063234
  89         0.00863785
  90        -0.00003498
  91         0.00006032
  92         0.00042307
  93         0.00054590
  94         0.00757214
Sym=    46a  
Ene=     0.7901
Spin= Alpha
Occup=    0.00000
   1         0.00028668
   2         0.00223843
   3         0.00918402
   4         0.00911502
   5         0.03667487
   6        -0.00891089
   7        -0.00138725
   8         0.25949092
   9        -0.06806705
  10        -0.00945441
  11        -1.90479860
  12         0.35069183
  13         0.08004118
  14         0.00285891
  15        -0.01726026
  16        -0.00515882
  17         0.06897169
  18         0.18818773
  19        -0.10491682
  20        -0.21860709
  21         0.84194664
  22         0.55729979
  23        -0.35146098
  24        -0.00527157
  25        -1.53789587
  26         1.32047025
  27        -0.01086651
  28         0.08136687
  29         0.02048604
  30         0.00128793
  31        -0.16257757
  32        -0.04988473
  33        -0.04553194
  34        -0.23281091
  35         0.48088920
  36         0.13623689
  37        -0.17511951
  38         0.00511671
  39        -0.23321201
  40         0.20001997
  41        -0.00147434
  42        -0.02352139
  43        -0.00930328
  44         0.00254151
  45         0.09473688
  46         0.02456058
  47         0.05379788
  48         0.27726483
  49        -0.51330610
  50         0.18325380
  51         0.12876069
  52        -0.01947483
  53        -0.27802817
  54        -0.10602252
  55         0.02303527
  56         0.02229433
  57        -0.00037549
  58        -0.00551999
  59        -0.05570901
  60         0.07677817
  61         0.11396771
  62         0.25042443
  63        -0.89366253
  64         0.66079475
  65         0.13818747
  66        -0.04659853
  67        -1.93198815
  68        -0.70267392
  69         0.15794318
  70        -0.09037893
  71        -0.00342579
  72         0.00323859
  73         0.09244661
  74        -0.14260196
  75        -0.60936873
  76         1.42929280
  77        -0.14722379
  78        -0.01418667
  79         0.00917672
  80        -0.04435025
  81         0.27392703
  82        -0.03718267
  83         0.00939130
  84         0.00137704
  85         0.02295082
  86        -0.24291737
  87        -0.03682312
  88         0.00662291
  89         0.00155561
  90         0.62468138
  91        -1.45421154
  92        -0.13663903
  93         0.06616600
  94         0.00276005
Sym=    47a  
Ene=     0.8030
Spin= Alpha
Occup=    0.00000
   1        -0.00000506
   2        -0.00003679
   3        -0.00009606
   4         0.00015478
   5        -0.00208404
   6        -0.00272135
   7        -0.03755308
   8        -0.01764387
   9        -0.02304528
  10        -0.31804082
  11         0.02668032
  12         0.03471825
  13         0.47946680
  14         0.00026371
  15         0.25491628
  16        -0.19635609
  17         0.02836201
  18         0.00762811
  19         0.00000182
  20         0.00000653
  21         0.00002062
  22         0.03379438
  23         0.04438151
  24         0.61106364
  25        -0.08157480
  26        -0.10717175
  27        -1.47436113
  28        -0.00936662
  29        -0.05058240
  30         0.11246270
  31        -0.01096309
  32         0.00260605
  33         0.00000836
  34         0.00002286
  35        -0.00024119
  36        -0.03415664
  37        -0.04474666
  38        -0.61663133
  39         0.09635053
  40         0.12614537
  41         1.73924886
  42        -0.00328768
  43        -0.02944671
  44         0.04844380
  45        -0.00516203
  46         0.00055854
  47        -0.00000529
  48        -0.00001541
  49         0.00011654
  50         0.03446180
  51         0.04519549
  52         0.62291090
  53        -0.08985214
  54        -0.11793448
  55        -1.62562434
  56         0.00160061
  57        -0.00748387
  58        -0.00691422
  59         0.00009456
  60        -0.00093676
  61        -0.00000782
  62        -0.00001476
  63        -0.00001900
  64        -0.02151892
  65        -0.02817483
  66        -0.38815352
  67         0.05127422
  68         0.06722529
  69         0.92545945
  70         0.01130154
  71        -0.00768334
  72        -0.08316818
  73         0.00561874
  74        -0.00520027
  75         0.00002823
  76        -0.00006245
  77        -0.00221023
  78        -0.00290699
  79        -0.04005103
  80         0.00003097
  81        -0.00007449
  82         0.00121652
  83         0.00158881
  84         0.02192778
  85         0.00000831
  86         0.00006914
  87        -0.00142182
  88        -0.00186878
  89        -0.02576517
  90        -0.00005384
  91         0.00008856
  92         0.00087582
  93         0.00112763
  94         0.01561948
Sym=    48a  
Ene=     0.8400
Spin= Alpha
Occup=    0.00000
   1        -0.00000214
   2        -0.00001576
   3        -0.00003899
   4         0.00003984
   5         0.00686162
   6         0.00899213
   7         0.12387980
   8         0.06081735
   9         0.07970616
  10         1.09821684
  11        -0.08019104
  12        -0.10521571
  13        -1.44939178
  14        -0.10928774
  15         0.35045257
  16         0.59492273
  17        -0.02394324
  18         0.05885137
  19         0.00001184
  20         0.00003990
  21        -0.00021828
  22        -0.00070061
  23        -0.00089752
  24        -0.01241649
  25         0.01142145
  26         0.01474184
  27         0.20339976
  28        -0.01148246
  29         0.13133221
  30        -0.00959092
  31         0.00794264
  32         0.00904524
  33        -0.00000687
  34        -0.00003118
  35         0.00037600
  36        -0.00783962
  37        -0.01041893
  38        -0.14300367
  39         0.01653035
  40         0.02232524
  41         0.30364492
  42         0.00221609
  43         0.07109342
  44        -0.07185026
  45         0.00917126
  46         0.00116278
  47         0.00001444
  48         0.00007467
  49        -0.00045292
  50         0.00257897
  51         0.00329874
  52         0.04521848
  53        -0.02087807
  54        -0.02708743
  55        -0.37047662
  56         0.01499423
  57        -0.10267667
  58        -0.03973467
  59        -0.00279322
  60        -0.00972902
  61        -0.00001524
  62        -0.00006665
  63         0.00024544
  64        -0.00963926
  65        -0.01259962
  66        -0.17365031
  67         0.04120417
  68         0.05371464
  69         0.74065012
  70         0.02527044
  71        -0.20394640
  72        -0.04381691
  73        -0.00807425
  74        -0.01736697
  75         0.00000166
  76        -0.00003941
  77         0.00194125
  78         0.00254791
  79         0.03508887
  80         0.00003022
  81         0.00011369
  82         0.00161759
  83         0.00212046
  84         0.02914969
  85        -0.00007071
  86        -0.00007026
  87         0.00025373
  88         0.00032547
  89         0.00446465
  90         0.00004479
  91         0.00001770
  92         0.00413692
  93         0.00543322
  94         0.07480979
Sym=    49a  
Ene=     0.8792
Spin= Alpha
Occup=    0.00000
   1         0.01497884
   2         0.10768523
   3         0.27701583
   4        -0.75134011
   5        -0.00233403
   6        -0.01638120
   7         0.00131907
   8        -0.02996555
   9        -0.20242576
  10         0.01636133
  11         0.12591355
  12         0.74782145
  13        -0.06126901
  14         0.04627158
  15        -0.00348778
  16         0.03147692
  17         0.27569883
  18        -0.09934961
  19        -0.04245817
  20        -0.18964465
  21         1.66509485
  22         0.50534462
  23         0.37778560
  24        -0.05541669
  25        -1.89269352
  26        -1.21772404
  27         0.19318776
  28        -0.06591804
  29        -0.00729631
  30        -0.02253690
  31        -0.11711721
  32         0.10117606
  33        -0.07407058
  34        -0.36214331
  35        -0.71715428
  36         0.02468497
  37         0.61807525
  38        -0.04622143
  39        -0.18325103
  40        -1.98371251
  41         0.15413302
  42         0.08197546
  43         0.02545581
  44         0.02360981
  45        -0.00179913
  46        -0.23861489
  47        -0.07427785
  48        -0.36434679
  49        -0.73804213
  50         0.19663533
  51         0.59205220
  52        -0.05386923
  53        -0.54265308
  54        -1.93235437
  55         0.17034799
  56         0.08537520
  57        -0.01366153
  58         0.01127655
  59         0.14978290
  60         0.18680266
  61        -0.04367578
  62        -0.19510783
  63         1.67263806
  64        -0.34373865
  65         0.52864323
  66        -0.01935782
  67         1.36589185
  68        -1.79134821
  69         0.05447500
  70        -0.06598398
  71         0.00251461
  72        -0.01925793
  73        -0.15382067
  74        -0.00544866
  75        -0.05244400
  76         0.95274884
  77        -0.07576987
  78        -0.02073971
  79         0.00569889
  80         0.11298455
  81        -1.17101504
  82         0.04790653
  83        -0.10408485
  84         0.00490668
  85         0.11650152
  86        -1.19152989
  87        -0.08153235
  88        -0.08262292
  89         0.01051052
  90        -0.05133479
  91         0.94493522
  92         0.06327878
  93        -0.04517270
  94        -0.00022166
Sym=    50a  
Ene=     0.9027
Spin= Alpha
Occup=    0.00000
   1        -0.00404319
   2        -0.02921523
   3        -0.07264160
   4         0.15007173
   5         0.00862831
   6        -0.00452890
   7        -0.00013939
   8         0.05364642
   9        -0.03533828
  10        -0.00032396
  11        -1.40490931
  12         0.24276913
  13         0.06002146
  14         0.01524364
  15        -0.02077459
  16        -0.00461324
  17         0.09082666
  18         0.23625679
  19        -0.17327880
  20        -0.71509063
  21         1.34627626
  22         0.02812497
  23        -0.16354404
  24         0.01030300
  25        -0.60851707
  26         1.44330327
  27        -0.07104060
  28         0.05427155
  29        -0.00235906
  30         0.01142776
  31         0.09025022
  32         0.03602040
  33        -0.04428127
  34        -0.24230774
  35        -1.43175278
  36        -0.74972118
  37         0.46265667
  38         0.00791114
  39         3.37814266
  40        -1.59589699
  41        -0.07120107
  42         0.08866849
  43         0.01698131
  44        -0.00491173
  45        -0.19626300
  46         0.03342225
  47         0.05836244
  48         0.31200778
  49         1.31312342
  50        -0.86125253
  51        -0.14769575
  52         0.05838249
  53         3.72809356
  54         0.26762408
  55        -0.22582675
  56        -0.09100759
  57        -0.01144141
  58         0.00688315
  59         0.17765018
  60        -0.09830331
  61         0.18177459
  62         0.74191450
  63        -1.35430509
  64         0.12670918
  65         0.16650079
  66        -0.01911058
  67        -1.15217738
  68        -1.23080915
  69         0.15317865
  70        -0.06481307
  71        -0.00922713
  72        -0.01639760
  73        -0.05143767
  74         0.07920112
  75        -0.10791508
  76         0.00998930
  77         0.02609781
  78        -0.00610594
  79        -0.00099855
  80         0.06553796
  81        -1.45214740
  82         0.03439451
  83        -0.12266505
  84         0.00699930
  85        -0.08907173
  86         1.45705850
  87         0.07342683
  88         0.10601559
  89        -0.01176303
  90         0.13618921
  91        -0.05611965
  92         0.01934393
  93         0.00040406
  94        -0.00109635
Sym=    51a  
Ene=     0.9307
Spin= Alpha
Occup=    0.00000
   1         0.12478249
   2         0.90461754
   3         2.31357646
   4        -4.38142432
   5         0.01297487
   6         0.06246223
   7        -0.00525188
   8         0.11074469
   9         0.50372939
  10        -0.04269007
  11        -0.00310946
  12         0.43939286
  13        -0.03173075
  14        -0.16279889
  15        -0.01355791
  16        -0.03319938
  17        -0.12358491
  18         0.06382675
  19         0.06630519
  20         0.40165507
  21        -0.77085541
  22         0.67100953
  23        -0.24534585
  24        -0.01934312
  25        -1.56761386
  26         1.12395036
  27         0.00518863
  28         0.09588280
  29         0.02063944
  30         0.00986194
  31        -0.09563452
  32        -0.08331888
  33        -0.03504228
  34        -0.17242853
  35         0.30115820
  36        -0.02538832
  37        -0.22793172
  38         0.01795379
  39         0.42962776
  40         0.46879239
  41        -0.05779949
  42         0.04983902
  43        -0.00245729
  44         0.00368877
  45         0.02562150
  46         0.08027596
  47        -0.03250053
  48        -0.16176783
  49         0.45471697
  50        -0.11479355
  51        -0.25298071
  52         0.02472772
  53         0.03294802
  54         0.68586300
  55        -0.05164790
  56         0.03982157
  57         0.01119281
  58         0.00804067
  59        -0.02286606
  60        -0.08321971
  61         0.07553056
  62         0.43874074
  63        -0.89522906
  64        -0.67864214
  65        -0.00075939
  66         0.03762046
  67         1.68752244
  68         0.47868828
  69        -0.12815347
  70         0.09666982
  71         0.00077596
  72         0.00394054
  73        -0.01530171
  74         0.12879992
  75        -0.17884333
  76         1.13476156
  77        -0.17565742
  78         0.00145509
  79         0.00961688
  80         0.17640055
  81         0.14600856
  82        -0.02081992
  83         0.01635968
  84        -0.00003290
  85         0.18097916
  86         0.26144013
  87         0.03092350
  88         0.01588338
  89        -0.00286529
  90        -0.17226588
  91         1.07516048
  92         0.16208742
  93        -0.05702748
  94        -0.00482800
Sym=    52a  
Ene=     0.9712
Spin= Alpha
Occup=    0.00000
   1        -0.02811076
   2        -0.20342515
   3        -0.51180099
   4         0.96269776
   5         0.01415052
   6        -0.00441813
   7        -0.00046612
   8         0.05788472
   9        -0.03788455
  10        -0.00048572
  11        -0.56995560
  12         0.05504448
  13         0.02758923
  14         0.29038245
  15         0.03204452
  16         0.03942815
  17        -0.00358394
  18        -0.05185106
  19         0.06348671
  20         0.30543885
  21        -1.04745952
  22        -0.24252051
  23        -0.02259654
  24         0.01506845
  25         0.86894070
  26         0.35120341
  27        -0.07358716
  28         0.04598637
  29         0.01059205
  30         0.00618777
  31        -0.03785841
  32        -0.05557014
  33         0.22142045
  34         0.98010783
  35        -0.59029490
  36         0.14288286
  37        -0.52236702
  38         0.03002932
  39        -0.44494808
  40         1.88802783
  41        -0.11246102
  42        -0.05574323
  43        -0.01349789
  44        -0.00574740
  45         0.06538026
  46         0.06148337
  47         0.29571755
  48         1.42934185
  49        -3.85300769
  50        -0.04605295
  51         0.35722936
  52        -0.02338495
  53        -0.19280007
  54        -1.72575546
  55         0.13600427
  56         0.06864023
  57         0.00482048
  58         0.01803468
  59         0.09316339
  60        -0.04555429
  61         0.29635864
  62         1.28033236
  63        -0.84872133
  64        -0.33676554
  65         0.74038068
  66        -0.03510813
  67         1.44722970
  68        -2.49805524
  69         0.10125252
  70        -0.08892290
  71         0.00412787
  72        -0.02719876
  73        -0.22297606
  74        -0.00546467
  75         0.06089290
  76        -0.28032446
  77         0.01128316
  78         0.00322209
  79        -0.00085731
  80         0.10230290
  81         1.05742069
  82        -0.05609228
  83         0.12108327
  84        -0.00568617
  85        -0.13380879
  86        -0.00923734
  87         0.02287396
  88         0.07466700
  89        -0.00668349
  90         0.42661997
  91         1.20075042
  92         0.14396572
  93        -0.03521839
  94        -0.00541611
Sym=    53a  
Ene=     0.9737
Spin= Alpha
Occup=    0.00000
   1        -0.02770355
   2        -0.20058421
   3        -0.50769698
   4         0.94842550
   5        -0.02146519
   6         0.00143015
   7         0.00108559
   8        -0.12302733
   9        -0.00478652
  10         0.00716915
  11         0.76070592
  12        -0.19136832
  13        -0.02823196
  14         0.25252273
  15         0.02093274
  16         0.03272152
  17         0.02936348
  18         0.02572243
  19         0.29327037
  20         1.26125944
  21        -0.72107053
  22         0.58384117
  23         0.61376046
  24        -0.07690828
  25        -2.28578528
  26        -2.04181661
  27         0.27478218
  28        -0.09741355
  29        -0.01225346
  30        -0.03310127
  31        -0.16150499
  32         0.16089511
  33         0.27102668
  34         1.32049754
  35        -3.81792107
  36         0.16745096
  37         0.38642116
  38        -0.03731219
  39        -0.46816213
  40        -1.94889593
  41         0.16736986
  42         0.07423213
  43         0.00461759
  44         0.01855686
  45         0.09648323
  46        -0.03795897
  47         0.18121901
  48         0.78379728
  49        -0.10261258
  50        -0.28378235
  51        -0.49255739
  52         0.05143560
  53         0.99516038
  54         1.87413353
  55        -0.19112736
  56        -0.06520377
  57        -0.00003819
  58        -0.00428073
  59        -0.00707933
  60        -0.08042810
  61         0.01137262
  62         0.08072281
  63        -0.84673346
  64         0.27208515
  65        -0.22270559
  66         0.00111374
  67        -0.88961230
  68         1.03841585
  69        -0.02617027
  70         0.06023746
  71        -0.00123819
  72         0.00667150
  73         0.03863592
  74         0.06743755
  75         0.43070284
  76         1.21501902
  77        -0.14631762
  78         0.01666773
  79         0.00688633
  80        -0.14573216
  81        -0.12977462
  82         0.01160736
  83         0.06515788
  84        -0.00537652
  85         0.12401938
  86         1.03039854
  87         0.08994362
  88         0.08166323
  89        -0.01091169
  90        -0.00557845
  91        -0.46190191
  92        -0.03378845
  93         0.01194150
  94         0.00100139
Sym=    54a  
Ene=     1.0841
Spin= Alpha
Occup=    0.00000
   1         0.00007098
   2         0.00051149
   3         0.00098958
   4        -0.00006557
   5         0.00794964
   6        -0.00147032
   7        -0.00033316
   8         0.07214402
   9        -0.01252032
  10        -0.00308574
  11        -0.32563340
  12         0.05928957
  13         0.01370538
  14        -0.00102219
  15        -0.00053575
  16        -0.00011437
  17         0.00306871
  18         0.00361503
  19         0.34953038
  20         1.57269353
  21        -4.38021831
  22         0.17589271
  23        -0.24318433
  24         0.00792583
  25        -0.28873547
  26         1.60688982
  27        -0.10064168
  28        -0.02130738
  29         0.00302490
  30         0.00678596
  31         0.04863893
  32        -0.10623058
  33         0.24527442
  34         1.06907203
  35        -2.21228609
  36        -0.52150768
  37        -0.41287480
  38         0.05886434
  39         3.32287906
  40         2.25049669
  41        -0.34739114
  42        -0.04639522
  43        -0.00385621
  44        -0.02889947
  45        -0.20403048
  46         0.14578058
  47        -0.24276842
  48        -1.05832449
  49         2.17812189
  50        -0.35356482
  51         0.56596168
  52        -0.02149198
  53         2.37577319
  54        -3.26248441
  55         0.10529151
  56         0.04744544
  57        -0.00793866
  58         0.02528223
  59         0.25079438
  60        -0.01835506
  61        -0.35111318
  62        -1.57871040
  63         4.40119250
  64         0.24846945
  65         0.16991696
  66        -0.02609349
  67        -0.81872923
  68        -1.42304591
  69         0.14869264
  70         0.02058491
  71         0.01152900
  72        -0.00236002
  73        -0.10682248
  74        -0.04993757
  75         0.26033186
  76         0.35177046
  77        -0.11049706
  78        -0.02519223
  79         0.00795484
  80         0.34535823
  81         0.32849460
  82        -0.03419279
  83         0.05508719
  84        -0.00209945
  85        -0.33884531
  86        -0.32485591
  87        -0.04996487
  88        -0.03949542
  89         0.00564029
  90        -0.26275691
  91        -0.35090703
  92        -0.09551057
  93         0.06146998
  94         0.00083317
Sym=    55a  
Ene=     1.1046
Spin= Alpha
Occup=    0.00000
   1         0.02634304
   2         0.19043087
   3         0.47943642
   4        -1.32034479
   5         0.00476502
   6         0.03786602
   7        -0.00301340
   8         0.02623674
   9         0.26465654
  10        -0.02067133
  11         0.00152157
  12        -0.22747510
  13         0.01644364
  14         0.29727993
  15         0.04711874
  16        -0.01861110
  17        -0.61158054
  18         0.21093007
  19         0.14519236
  20         0.66428724
  21        -1.34037388
  22        -0.03826711
  23         0.07737238
  24        -0.00351105
  25        -0.30563119
  26         1.10314872
  27        -0.06315719
  28        -0.02072554
  29        -0.00462184
  30         0.00431460
  31         0.07770327
  32        -0.02306287
  33        -0.12208309
  34        -0.49051212
  35         2.50715529
  36        -0.23265360
  37         0.44346418
  38        -0.01932514
  39         1.44309058
  40        -1.02374742
  41        -0.00553015
  42        -0.04689102
  43        -0.00915231
  44        -0.00683868
  45         0.02284660
  46         0.04592326
  47        -0.12559478
  48        -0.50697125
  49         2.54880716
  50         0.36976467
  51         0.33467433
  52        -0.04477798
  53        -1.71008665
  54        -0.45514571
  55         0.12768619
  56        -0.04736502
  57        -0.00015579
  58        -0.00404834
  59        -0.01253489
  60        -0.05104407
  61         0.13833304
  62         0.63456940
  63        -1.28642707
  64         0.06268486
  65         0.04703939
  66        -0.00688682
  67         0.66491092
  68         0.97898375
  69        -0.10788897
  70        -0.01953555
  71        -0.00387572
  72         0.00466273
  73         0.07549011
  74        -0.02973283
  75         0.06910574
  76         0.17480167
  77        -0.02984284
  78         0.10302388
  79        -0.00583351
  80        -0.87665794
  81        -0.35699339
  82         0.06904432
  83        -0.04777113
  84        -0.00035758
  85        -0.87933730
  86        -0.35849749
  87        -0.08109092
  88        -0.02210368
  89         0.00608527
  90         0.06216226
  91         0.16768531
  92         0.06089000
  93         0.08727403
  94        -0.00971432
Sym=    56a  
Ene=     1.1433
Spin= Alpha
Occup=    0.00000
   1         0.00000292
   2         0.00002088
   3         0.00004847
   4        -0.00013794
   5        -0.00149223
   6        -0.00197125
   7        -0.02716916
   8        -0.01180605
   9        -0.01557189
  10        -0.21468512
  11         0.01843253
  12         0.02414383
  13         0.33243004
  14         0.04333457
  15        -0.08267302
  16        -0.27855045
  17         0.01568578
  18        -0.02164340
  19        -0.00000503
  20        -0.00003265
  21        -0.00013249
  22         0.00795779
  23         0.01049798
  24         0.14353344
  25        -0.00821273
  26        -0.01111830
  27        -0.15168399
  28        -0.03632409
  29         0.22535940
  30         0.11471361
  31         0.00408484
  32         0.02287526
  33        -0.00003522
  34        -0.00012748
  35         0.00078399
  36         0.01570441
  37         0.02067255
  38         0.28394486
  39        -0.01425430
  40        -0.01800815
  41        -0.25151110
  42         0.04252600
  43         0.05577214
  44        -0.37802501
  45         0.03058119
  46        -0.01711021
  47         0.00003194
  48         0.00011276
  49        -0.00065797
  50         0.01599504
  51         0.02091965
  52         0.28878861
  53        -0.01466168
  54        -0.01863542
  55        -0.25415595
  56         0.06042971
  57        -0.17668067
  58        -0.34169709
  59         0.01508729
  60        -0.03206411
  61         0.00001365
  62         0.00008089
  63         0.00010737
  64         0.00619200
  65         0.00804597
  66         0.11176736
  67        -0.00651849
  68        -0.00896207
  69        -0.12438360
  70        -0.00933350
  71        -0.16247745
  72         0.19736759
  73        -0.02331824
  74        -0.00085043
  75        -0.00005330
  76        -0.00001451
  77         0.00695807
  78         0.00913250
  79         0.12584231
  80         0.00009927
  81        -0.00000920
  82         0.01050967
  83         0.01373540
  84         0.18956836
  85        -0.00019255
  86        -0.00001241
  87         0.01073688
  88         0.01408181
  89         0.19361909
  90         0.00012150
  91         0.00002573
  92         0.00654721
  93         0.00861411
  94         0.11841007
Sym=    57a  
Ene=     1.1645
Spin= Alpha
Occup=    0.00000
   1         0.00014662
   2         0.00107457
   3         0.00404937
   4        -0.00670694
   5         0.01699393
   6        -0.00358366
   7        -0.00068342
   8         0.05890331
   9        -0.01785367
  10        -0.00198309
  11         0.18500225
  12        -0.02495451
  13        -0.00838794
  14        -0.00260506
  15         0.05202511
  16         0.01679641
  17        -0.19893143
  18        -0.56536649
  19         0.14955125
  20         0.52935697
  21        -0.52682949
  22        -0.15837044
  23        -0.26499308
  24         0.02799032
  25         1.87497495
  26         0.26609299
  27        -0.12311983
  28        -0.11416488
  29        -0.00206243
  30        -0.02071667
  31        -0.11380938
  32        -0.03696346
  33         0.04009819
  34         0.24031907
  35         1.05332170
  36        -0.21004734
  37         0.35797325
  38        -0.01433971
  39        -0.22318501
  40        -1.21366174
  41         0.10046560
  42        -0.05011450
  43        -0.00933355
  44        -0.01353713
  45        -0.03208076
  46         0.08663370
  47        -0.04507129
  48        -0.26320683
  49        -1.01098169
  50        -0.31742297
  51        -0.26822546
  52         0.03706482
  53         0.19786079
  54         1.23675507
  55        -0.10073992
  56         0.05245899
  57        -0.00257902
  58         0.00985148
  59         0.07805824
  60         0.04482320
  61        -0.14685112
  62        -0.52084443
  63         0.48725396
  64        -0.06773736
  65         0.29398167
  66        -0.01761134
  67         1.68622287
  68        -0.88179435
  69        -0.02932753
  70         0.11397120
  71         0.01446580
  72         0.02469621
  73         0.06637395
  74        -0.09738181
  75        -0.91291273
  76        -0.19140590
  77        -0.04138750
  78        -0.02678313
  79         0.00421798
  80        -0.54328569
  81        -0.20125415
  82        -0.06539728
  83        -0.06082425
  84         0.00805707
  85         0.55005847
  86         0.19876933
  87        -0.04137183
  88         0.07855010
  89        -0.00339509
  90         0.92732345
  91         0.18930138
  92        -0.03055808
  93         0.03751286
  94        -0.00105047
Sym=    58a  
Ene=     1.2103
Spin= Alpha
Occup=    0.00000
   1        -0.02247037
   2        -0.16216843
   3        -0.40693304
   4         0.58856439
   5        -0.00323097
   6        -0.01313404
   7         0.00113360
   8        -0.01438644
   9        -0.04615781
  10         0.00415472
  11         0.02355432
  12         0.05079261
  13        -0.00500627
  14         0.13710182
  15        -0.00125735
  16         0.06501589
  17         0.51046662
  18        -0.18732120
  19         0.36030683
  20         1.55352968
  21        -3.72371754
  22        -0.06112586
  23        -0.10046484
  24         0.01068380
  25        -0.46602105
  26         0.60200870
  27        -0.01790516
  28         0.01731863
  29         0.00786892
  30         0.00911683
  31         0.01886043
  32        -0.09917914
  33        -0.27057313
  34        -1.21732249
  35         2.70960850
  36        -0.24634879
  37        -0.16515237
  38         0.02559992
  39         1.01400456
  40         0.56384346
  41        -0.09702504
  42         0.06702050
  43        -0.00303959
  44        -0.00593572
  45        -0.06231509
  46         0.17721534
  47        -0.27049489
  48        -1.21685517
  49         2.73594050
  50         0.17957308
  51        -0.23608304
  52         0.00720690
  53        -0.76931822
  54         0.84943929
  55        -0.01911046
  56         0.06425881
  57         0.02228724
  58         0.00166673
  59        -0.16303385
  60        -0.09638945
  61         0.36239044
  62         1.56256204
  63        -3.71109649
  64         0.03252612
  65        -0.12161251
  66         0.00703988
  67         0.60243303
  68         0.43531172
  69        -0.06497156
  70         0.01584194
  71        -0.00758746
  72         0.00386722
  73         0.07662488
  74         0.06688755
  75         1.00061434
  76        -0.00716446
  77        -0.01311480
  78        -0.05465132
  79         0.00469081
  80        -0.09046789
  81        -0.12498132
  82         0.03915209
  83        -0.04063822
  84         0.00076927
  85        -0.10720552
  86        -0.12817152
  87        -0.04906323
  88        -0.02615741
  89         0.00460849
  90         0.97678049
  91        -0.01292254
  92        -0.00609376
  93        -0.05570113
  94         0.00439088
Sym=    59a  
Ene=     1.2255
Spin= Alpha
Occup=    0.00000
   1         0.00000025
   2         0.00000181
   3         0.00000290
   4        -0.00001697
   5        -0.00082478
   6        -0.00110142
   7        -0.01513017
   8        -0.00472038
   9        -0.00631291
  10        -0.08675866
  11         0.01074675
  12         0.01431726
  13         0.19658390
  14         0.02405121
  15        -0.03315242
  16        -0.16437465
  17         0.01020979
  18        -0.01150526
  19        -0.00003465
  20        -0.00012774
  21         0.00015556
  22        -0.00749826
  23        -0.00971197
  24        -0.13545227
  25         0.00410001
  26         0.00525457
  27         0.07468291
  28         0.03755534
  29        -0.08558832
  30        -0.23078326
  31         0.01205203
  32        -0.01913863
  33         0.00003986
  34         0.00017656
  35        -0.00036019
  36         0.00681420
  37         0.00888824
  38         0.12299801
  39        -0.00727053
  40        -0.00892743
  41        -0.12930237
  42        -0.04366521
  43         0.46280476
  44        -0.00855988
  45         0.02617266
  46         0.03329435
  47        -0.00005967
  48        -0.00026786
  49         0.00052705
  50         0.00664349
  51         0.00867096
  52         0.11936718
  53        -0.00733654
  54        -0.00951888
  55        -0.12660941
  56         0.02255102
  57        -0.43697563
  58         0.15542074
  59        -0.03547179
  60        -0.02327001
  61         0.00006109
  62         0.00024541
  63        -0.00040188
  64        -0.00775990
  65        -0.01025547
  66        -0.13959666
  67         0.00453852
  68         0.00597753
  69         0.08000391
  70         0.03068703
  71         0.00691594
  72        -0.24736722
  73         0.01841316
  74        -0.01331765
  75         0.00000934
  76         0.00000831
  77        -0.00750876
  78        -0.00984463
  79        -0.13563181
  80         0.00027089
  81         0.00006967
  82         0.00776091
  83         0.01014892
  84         0.13968746
  85        -0.00027328
  86        -0.00007815
  87         0.00771656
  88         0.01007122
  89         0.13898552
  90         0.00009358
  91        -0.00001027
  92        -0.00766095
  93        -0.01004926
  94        -0.13828370
Sym=    60a  
Ene=     1.2473
Spin= Alpha
Occup=    0.00000
   1         0.00054593
   2         0.00397518
   3         0.01079709
   4        -0.01440266
   5        -0.07023132
   6         0.01205564
   7         0.00300902
   8        -0.41162288
   9         0.06838769
  10         0.01779979
  11         0.36583862
  12        -0.05912445
  13        -0.01591804
  14        -0.00043028
  15         0.01983838
  16         0.00614822
  17        -0.07818617
  18        -0.21326167
  19         0.15707973
  20         0.65269844
  21        -1.70008575
  22         0.11604425
  23        -0.43656133
  24         0.02526612
  25        -1.30536439
  26         1.09630491
  27        -0.00733259
  28         0.00882571
  29         0.00355101
  30         0.01885023
  31         0.13654102
  32        -0.14003052
  33        -0.35469309
  34        -1.59079594
  35         2.50155796
  36        -0.00970660
  37        -0.11420662
  38         0.00886219
  39         1.14045865
  40        -0.83834982
  41        -0.00231600
  42         0.02532055
  43        -0.01253969
  44         0.00496948
  45         0.11600303
  46         0.11877289
  47         0.35470293
  48         1.59091467
  49        -2.50519398
  50         0.02749818
  51         0.11143452
  52        -0.00958508
  53         1.36661330
  54         0.39911517
  55        -0.10465406
  56        -0.02298129
  57        -0.01373096
  58        -0.01309262
  59        -0.01256400
  60         0.16567591
  61        -0.15927237
  62        -0.66352266
  63         1.71829046
  64         0.25404588
  65         0.36695625
  66        -0.04073327
  67        -1.60356313
  68        -0.57218831
  69         0.13033089
  70        -0.00953003
  71         0.01113116
  72        -0.01434800
  73        -0.19414032
  74        -0.01834510
  75         0.91696739
  76         0.10095808
  77         0.03033510
  78         0.02414166
  79        -0.00343975
  80        -0.93515807
  81        -0.22318067
  82        -0.01071519
  83         0.00614246
  84         0.00019464
  85         0.94255657
  86         0.22393152
  87        -0.01198529
  88        -0.00269559
  89         0.00090232
  90        -0.92276167
  91        -0.10345191
  92         0.02013194
  93        -0.03354011
  94         0.00130054
Sym=    61a  
Ene=     1.2829
Spin= Alpha
Occup=    0.00000
   1        -0.00000862
   2        -0.00006239
   3        -0.00015286
   4         0.00024367
   5         0.00002525
   6         0.00003141
   7         0.00039456
   8         0.00021789
   9         0.00027418
  10         0.00355647
  11        -0.00030084
  12        -0.00037048
  13        -0.00417421
  14        -0.00355290
  15         0.04129130
  16        -0.00372559
  17         0.00258241
  18         0.00284270
  19         0.00001198
  20         0.00005200
  21        -0.00007851
  22         0.01330679
  23         0.01744940
  24         0.24039007
  25        -0.01862244
  26        -0.02440503
  27        -0.33610862
  28        -0.05128044
  29         0.33661283
  30         0.14770887
  31         0.00784629
  32         0.03285703
  33         0.00000184
  34         0.00000323
  35        -0.00006995
  36         0.01222062
  37         0.01601894
  38         0.22071101
  39        -0.01335195
  40        -0.01766009
  41        -0.24226693
  42         0.03272232
  43         0.00808014
  44        -0.26426271
  45         0.01967085
  46        -0.01418193
  47        -0.00001988
  48        -0.00007964
  49         0.00025817
  50        -0.01227890
  51        -0.01611590
  52        -0.22194701
  53         0.01350636
  54         0.01777239
  55         0.24352696
  56        -0.04052511
  57         0.09769237
  58         0.24502450
  59        -0.01243821
  60         0.02083899
  61         0.00001139
  62         0.00003109
  63        -0.00027467
  64        -0.01315890
  65        -0.01720558
  66        -0.23686505
  67         0.01853126
  68         0.02427848
  69         0.33424077
  70         0.00666559
  71         0.26699292
  72        -0.25611116
  73         0.03339182
  74         0.00517914
  75         0.00001261
  76         0.00001241
  77         0.01410789
  78         0.01850071
  79         0.25486884
  80        -0.00003200
  81        -0.00000874
  82         0.01150853
  83         0.01509789
  84         0.20792234
  85         0.00000735
  86         0.00000306
  87        -0.01157380
  88        -0.01517919
  89        -0.20901047
  90         0.00005514
  91         0.00000063
  92        -0.01405849
  93        -0.01844821
  94        -0.25395724
Sym=    62a  
Ene=     1.3136
Spin= Alpha
Occup=    0.00000
   1         0.19066679
   2         1.38054491
   3         3.38320200
   4        -5.43601972
   5        -0.01763859
   6        -0.08826570
   7         0.00738407
   8        -0.10403048
   9        -0.49944844
  10         0.04201578
  11         0.38906191
  12         1.96174389
  13        -0.16394847
  14         0.69223571
  15         0.06752602
  16         0.09399842
  17         0.05019821
  18        -0.04603700
  19        -0.10935819
  20        -0.32589996
  21         2.08367426
  22        -0.45066689
  23         0.30079765
  24         0.00311630
  25         0.06067693
  26         0.01434256
  27        -0.00440845
  28         0.16254551
  29         0.02320673
  30         0.01811126
  31        -0.07156109
  32        -0.04828784
  33         0.03501177
  34         0.11663009
  35        -0.70624244
  36        -0.09813412
  37        -0.04251178
  38         0.00853146
  39        -0.28887617
  40         0.33631303
  41        -0.00844377
  42         0.16713689
  43         0.01465188
  44         0.01946694
  45        -0.00488807
  46         0.02430475
  47         0.03183329
  48         0.09607101
  49        -0.71454476
  50         0.07276347
  51        -0.07715669
  52         0.00155384
  53         0.30454536
  54         0.14037358
  55        -0.02701939
  56         0.16580040
  57         0.01879906
  58         0.02040447
  59        -0.02390651
  60        -0.01970437
  61        -0.09795854
  62        -0.26638002
  63         2.09420208
  64         0.55600822
  65         0.11932480
  66        -0.03944209
  67        -0.06516274
  68         0.07994496
  69        -0.00218162
  70         0.15928981
  71         0.01042305
  72         0.01366377
  73        -0.02350210
  74         0.08611169
  75         0.00905984
  76        -0.26155566
  77         0.05729446
  78         0.05622663
  79        -0.00724436
  80         0.57792002
  81        -0.07523511
  82        -0.00863969
  83        -0.02896312
  84         0.00258906
  85         0.51993133
  86        -0.08534548
  87         0.00364303
  88        -0.02917414
  89         0.00190206
  90        -0.00943097
  91        -0.25744704
  92        -0.03349104
  93         0.07794647
  94        -0.00381546
Sym=    63a  
Ene=     1.3330
Spin= Alpha
Occup=    0.00000
   1         0.00600436
   2         0.04326524
   3         0.10051672
   4        -0.19556613
   5         0.05282691
   6        -0.01056768
   7        -0.00215753
   8         0.29532247
   9        -0.04931025
  10        -0.01277295
  11        -1.13480048
  12         0.27132010
  13         0.04312699
  14         0.03022077
  15        -0.07713891
  16        -0.02074909
  17         0.31942494
  18         0.85470326
  19         0.16438076
  20         0.92392652
  21         0.67194187
  22        -0.56889652
  23         0.19767780
  24         0.01714146
  25         0.29982531
  26         0.19714623
  27        -0.03091583
  28        -0.06310356
  29        -0.00853337
  30        -0.01068885
  31        -0.00715932
  32         0.03877869
  33         0.00049428
  34        -0.12663313
  35        -0.97270992
  36         0.09302029
  37        -0.09479494
  38         0.00172545
  39         0.68538664
  40        -1.86901245
  41         0.09773891
  42        -0.00563313
  43        -0.00889118
  44        -0.00750047
  45        -0.00322702
  46         0.11685702
  47         0.00622454
  48         0.15083518
  49         0.88394184
  50         0.13943952
  51         0.04366715
  52        -0.01088012
  53         1.23186281
  54         1.48760755
  55        -0.17621572
  56         0.01678416
  57        -0.00868028
  58         0.00309857
  59         0.07711489
  60         0.08244422
  61        -0.17021807
  62        -0.92927663
  63        -0.50047123
  64        -0.55226631
  65         0.03206343
  66         0.02825702
  67         0.28888527
  68        -0.33503778
  69         0.00829340
  70         0.07638387
  71         0.00423418
  72         0.01032308
  73         0.02612994
  74         0.02304501
  75        -0.30517041
  76         0.09171544
  77         0.01329261
  78         0.10093077
  79        -0.00806423
  80        -0.89709873
  81        -0.18418510
  82        -0.07843072
  83         0.06393238
  84        -0.00029312
  85         0.90001993
  86         0.17054913
  87        -0.09519179
  88        -0.03096832
  89         0.00754142
  90         0.34311118
  91        -0.09549201
  92        -0.02498656
  93        -0.08971928
  94         0.00791828
Sym=    64a  
Ene=     1.4079
Spin= Alpha
Occup=    0.00000
   1         0.09200246
   2         0.64923396
   3         1.45532326
   4        -4.90778928
   5         0.01767025
   6         0.10080160
   7        -0.00829594
   8         0.12634022
   9         0.69509731
  10        -0.05745441
  11         0.23958350
  12         1.35299876
  13        -0.11147163
  14         0.02444889
  15        -0.00932486
  16         0.04416451
  17         0.43459371
  18        -0.16891310
  19        -0.38550235
  20        -1.54218290
  21         4.77623596
  22         0.14922777
  23        -0.10977183
  24        -0.00028994
  25        -3.36868610
  26        -0.01455265
  27         0.18753488
  28         0.03828856
  29        -0.00846080
  30         0.00314338
  31         0.06592148
  32         0.11652781
  33         0.18974414
  34         0.72575512
  35        -2.45277163
  36        -0.39373096
  37        -0.06787572
  38         0.02671349
  39         0.89862526
  40        -2.10747293
  41         0.10327639
  42        -0.03831241
  43        -0.01284977
  44         0.01243523
  45         0.21093988
  46        -0.03464792
  47         0.19550860
  48         0.74437929
  49        -2.59039463
  50         0.34037890
  51        -0.20093793
  52        -0.00425604
  53        -1.61706375
  54        -1.75279071
  55         0.21678225
  56        -0.03835262
  57        -0.00554585
  58         0.01459936
  59         0.18109376
  60        -0.11187971
  61        -0.38232853
  62        -1.51986071
  63         4.84158896
  64        -0.15861777
  65        -0.04803478
  66         0.01226395
  67         3.17019455
  68        -1.20686586
  69        -0.08784806
  70         0.03487515
  71         0.01486322
  72         0.01008622
  73        -0.02722422
  74        -0.13688939
  75         0.89385252
  76         0.35026068
  77         0.15194996
  78         0.07431227
  79        -0.01381025
  80        -0.65748041
  81        -0.30633440
  82         0.00799983
  83         0.10616627
  84        -0.00815972
  85        -0.68530683
  86        -0.31817673
  87         0.03281101
  88         0.10528280
  89        -0.00947072
  90         0.88745668
  91         0.35905533
  92        -0.11676633
  93         0.12613601
  94        -0.00268932
Sym=    65a  
Ene=     1.5196
Spin= Alpha
Occup=    0.00000
   1         0.00000399
   2         0.00002829
   3         0.00006553
   4        -0.00020500
   5         0.00006412
   6         0.00012746
   7         0.00163146
   8         0.00075409
   9         0.00125766
  10         0.01652661
  11        -0.00081255
  12        -0.00117804
  13        -0.01669330
  14        -0.03967244
  15         0.51164002
  16        -0.07719130
  17         0.03388549
  18         0.03304652
  19        -0.00008837
  20        -0.00035106
  21         0.00156590
  22        -0.00179391
  23        -0.00249482
  24        -0.03314590
  25        -0.01973808
  26        -0.02493436
  27        -0.34025715
  28         0.02053522
  29         0.33768294
  30        -0.41955394
  31         0.04920241
  32         0.00125805
  33         0.00013265
  34         0.00051660
  35        -0.00247290
  36        -0.00712249
  37        -0.00932703
  38        -0.12858891
  39         0.01741719
  40         0.02091580
  41         0.30546010
  42        -0.04080062
  43         0.19247663
  44         0.17516688
  45        -0.00209522
  46         0.02387954
  47        -0.00011233
  48        -0.00043691
  49         0.00222678
  50         0.00738416
  51         0.00960563
  52         0.13286005
  53        -0.01614027
  54        -0.02132492
  55        -0.30545125
  56         0.01713989
  57         0.12093181
  58        -0.22751946
  59         0.02325384
  60        -0.00385381
  61         0.00005516
  62         0.00022471
  63        -0.00112850
  64         0.00213666
  65         0.00279788
  66         0.03775188
  67         0.01808320
  68         0.02481344
  69         0.33597049
  70        -0.07926785
  71         0.45645545
  72         0.27718101
  73         0.00506186
  74         0.04889292
  75         0.00010770
  76         0.00015251
  77         0.01072450
  78         0.01402423
  79         0.19321416
  80        -0.00019164
  81        -0.00020050
  82        -0.01133434
  83        -0.01478226
  84        -0.20433503
  85         0.00009447
  86         0.00019459
  87         0.01122556
  88         0.01474147
  89         0.20337665
  90        -0.00007852
  91        -0.00009900
  92        -0.01063468
  93        -0.01397402
  94        -0.19260814
Sym=    66a  
Ene=     1.5315
Spin= Alpha
Occup=    0.00000
   1         0.00063083
   2         0.00444138
   3         0.01086676
   4        -0.03085292
   5        -0.13821749
   6         0.02530386
   7         0.00581552
   8        -0.85702072
   9         0.15587976
  10         0.03612695
  11         0.48683350
  12        -0.07995180
  13        -0.02117296
  14        -0.00137064
  15        -0.00134034
  16        -0.00021540
  17         0.00657518
  18         0.01023077
  19        -0.37496640
  20        -1.48993267
  21         7.01432007
  22         0.15194130
  23        -0.42257550
  24         0.02228561
  25        -3.97653178
  26        -1.14627060
  27         0.30338947
  28        -0.05320303
  29        -0.03203385
  30        -0.01674581
  31         0.09072524
  32         0.29874299
  33         0.61498479
  34         2.37080630
  35       -12.08891495
  36         0.09619715
  37         0.05299201
  38        -0.00913542
  39         2.44356834
  40        -5.96658292
  41         0.29771421
  42         0.10459672
  43        -0.00530955
  44         0.00959506
  45         0.07149403
  46         0.15697537
  47        -0.61432160
  48        -2.36863035
  49        12.07186943
  50         0.07295946
  51        -0.08387356
  52         0.00203579
  53         4.30595049
  54         4.75005091
  55        -0.58329050
  56        -0.10410211
  57        -0.02485064
  58        -0.01885849
  59         0.04873295
  60         0.16458719
  61         0.36952198
  62         1.46568851
  63        -6.95883216
  64         0.27850421
  65         0.34003725
  66        -0.04010276
  67        -3.31780161
  68         2.44767369
  69         0.00582341
  70         0.05508615
  71        -0.02273956
  72        -0.00016304
  73         0.12409016
  74         0.28903221
  75         0.50198594
  76         0.65505835
  77         0.13330929
  78        -0.03466571
  79        -0.00490150
  80        -0.74850028
  81        -1.02684115
  82        -0.10832720
  83         0.22693845
  84        -0.01040113
  85         0.74322985
  86         1.02502976
  87        -0.17843091
  88        -0.17503049
  89         0.02257508
  90        -0.49718313
  91        -0.65205862
  92         0.13503098
  93        -0.01353301
  94        -0.00644711
Sym=    67a  
Ene=     1.5866
Spin= Alpha
Occup=    0.00000
   1         0.00000159
   2         0.00001127
   3         0.00002612
   4        -0.00008146
   5         0.00086204
   6         0.00112118
   7         0.01544206
   8        -0.00042726
   9        -0.00061726
  10        -0.00852114
  11        -0.02811788
  12        -0.03681711
  13        -0.50754435
  14        -0.07628702
  15         0.09404441
  16         0.52999720
  17        -0.03335917
  18         0.03651468
  19         0.00001589
  20         0.00006436
  21        -0.00030718
  22         0.00251409
  23         0.00331773
  24         0.04550388
  25         0.02816843
  26         0.03680926
  27         0.50596511
  28        -0.00596891
  29        -0.35677884
  30         0.31914470
  31        -0.04292155
  32        -0.00822155
  33        -0.00002469
  34        -0.00009338
  35         0.00055659
  36         0.00180046
  37         0.00237466
  38         0.03281403
  39        -0.01532856
  40        -0.01971653
  41        -0.27546250
  42         0.02986965
  43        -0.07923725
  44        -0.17521787
  45         0.00836673
  46        -0.01560044
  47         0.00002856
  48         0.00010815
  49        -0.00061964
  50         0.00190899
  51         0.00250370
  52         0.03454313
  53        -0.01534969
  54        -0.02011845
  55        -0.27316444
  56         0.02265692
  57         0.01587924
  58        -0.19074106
  59         0.01475469
  60        -0.00951039
  61        -0.00003010
  62        -0.00011909
  63         0.00046479
  64         0.00262684
  65         0.00346073
  66         0.04788026
  67         0.02788936
  68         0.03612689
  69         0.49983030
  70        -0.06430661
  71         0.43829913
  72         0.17296106
  73         0.01161414
  74         0.04166973
  75        -0.00002698
  76        -0.00002123
  77        -0.01945158
  78        -0.02549838
  79        -0.35127364
  80         0.00001584
  81         0.00005755
  82         0.01285648
  83         0.01685105
  84         0.23221890
  85        -0.00006763
  86        -0.00004913
  87         0.01276457
  88         0.01674006
  89         0.23039116
  90         0.00002814
  91         0.00004911
  92        -0.01933068
  93        -0.02534233
  94        -0.34914102
Sym=    68a  
Ene=     1.6310
Spin= Alpha
Occup=    0.00000
   1        -0.08874407
   2        -0.64064963
   3        -1.52811268
   4         2.70516112
   5         0.00419694
   6         0.02330487
   7        -0.00192395
   8         0.00589436
   9         0.02713396
  10        -0.00229717
  11        -0.14375365
  12        -0.82120852
  13         0.06756178
  14        -0.35451536
  15        -0.02646296
  16        -0.06996137
  17        -0.26931650
  18         0.09690348
  19         0.05832367
  20         0.11551980
  21        -0.60141818
  22         0.02087405
  23        -0.09264695
  24         0.00556338
  25         0.05347127
  26        -0.38176061
  27         0.02477324
  28         0.22531816
  29         0.03814527
  30         0.00601329
  31        -0.30485409
  32         0.00650060
  33         0.12504593
  34         0.48070347
  35        -0.94695765
  36         0.04765963
  37         0.27842769
  38        -0.02285449
  39        -0.36852296
  40        -0.16498127
  41         0.03235263
  42         0.24918886
  43        -0.00543844
  44         0.04385831
  45         0.30332668
  46         0.17516011
  47         0.12507011
  48         0.48127706
  49        -0.94183581
  50         0.05071779
  51         0.27828751
  52        -0.02300731
  53         0.29153977
  54        -0.27813694
  55         0.00406742
  56         0.24601832
  57         0.04095007
  58         0.05827248
  59         0.12122840
  60        -0.32636294
  61         0.05815642
  62         0.11452814
  63        -0.60442440
  64        -0.05176501
  65        -0.07959579
  66         0.00864859
  67        -0.17887958
  68        -0.33765170
  69         0.03441866
  70         0.22643677
  71         0.02078677
  72         0.00060797
  73        -0.23699137
  74         0.19450697
  75         0.67360030
  76        -0.36233774
  77         0.09625475
  78        -0.03994879
  79        -0.00244045
  80         0.87958548
  81        -0.51667852
  82         0.11648789
  83        -0.12357774
  84         0.00253085
  85         0.88104206
  86        -0.51636746
  87        -0.15161934
  88        -0.07617076
  89         0.01392994
  90         0.67467813
  91        -0.36336350
  92        -0.10463585
  93        -0.00489992
  94         0.00614913
Sym=    69a  
Ene=     1.7399
Spin= Alpha
Occup=    0.00000
   1         0.00000281
   2         0.00001971
   3         0.00004260
   4        -0.00011210
   5        -0.00003941
   6        -0.00005288
   7        -0.00074363
   8        -0.00032849
   9        -0.00043763
  10        -0.00614983
  11         0.00041117
  12         0.00058769
  13         0.00752314
  14        -0.00592763
  15         0.09529769
  16        -0.02581747
  17         0.00714727
  18         0.00551191
  19        -0.00000726
  20        -0.00002334
  21         0.00007947
  22         0.00008128
  23         0.00011463
  24         0.00158736
  25         0.02374953
  26         0.03115870
  27         0.42921592
  28         0.05157781
  29        -0.03829036
  30        -0.37772338
  31         0.02536782
  32        -0.02392903
  33         0.00000403
  34         0.00001611
  35         0.00003627
  36        -0.01132416
  37        -0.01482049
  38        -0.20403576
  39        -0.04141910
  40        -0.05428535
  41        -0.74800337
  42        -0.00548946
  43         0.36659158
  44        -0.23644403
  45         0.03745260
  46         0.01354158
  47         0.00001887
  48         0.00007175
  49        -0.00026518
  50         0.01120738
  51         0.01466202
  52         0.20213945
  53         0.04125517
  54         0.05409653
  55         0.74657647
  56        -0.05229392
  57         0.42543578
  58         0.08781276
  59         0.01711282
  60         0.03599691
  61        -0.00001371
  62        -0.00004724
  63         0.00024246
  64        -0.00048493
  65        -0.00064837
  66        -0.00881529
  67        -0.02329930
  68        -0.03074126
  69        -0.42225890
  70        -0.05471716
  71         0.08843778
  72         0.36387002
  73        -0.02160133
  74         0.02680792
  75        -0.00001737
  76         0.00000817
  77        -0.01655424
  78        -0.02169518
  79        -0.29903541
  80        -0.00001673
  81         0.00001468
  82         0.02405495
  83         0.03155120
  84         0.43456533
  85        -0.00003092
  86        -0.00001051
  87        -0.02402264
  88        -0.03150922
  89        -0.43409057
  90        -0.00000893
  91         0.00002464
  92         0.01643129
  93         0.02156125
  94         0.29676192
Sym=    70a  
Ene=     1.7478
Spin= Alpha
Occup=    0.00000
   1         0.06831490
   2         0.47032917
   3         0.93608951
   4        -2.88500183
   5         0.01255911
   6         0.06623466
   7        -0.00550335
   8         0.09800334
   9         0.53424222
  10        -0.04420688
  11         0.08856964
  12         0.46055065
  13        -0.03833279
  14         0.37562559
  15         0.03626252
  16         0.04809178
  17         0.00443620
  18        -0.00265479
  19         0.01698020
  20         0.17210048
  21         1.01751963
  22        -0.19849280
  23        -0.17584242
  24         0.02375155
  25        -0.15661357
  26         0.92760841
  27        -0.05866818
  28        -0.08987285
  29         0.01721680
  30         0.01166429
  31         0.02796463
  32        -0.37580290
  33        -0.05055673
  34        -0.25331894
  35         0.17086964
  36         0.30081180
  37         0.00290988
  38        -0.01687517
  39        -0.54151133
  40        -0.21137459
  41         0.04531686
  42        -0.04487388
  43         0.00356191
  44         0.02453566
  45         0.21018216
  46        -0.26693567
  47        -0.04580607
  48        -0.23136865
  49         0.13280349
  50        -0.27630347
  51         0.11062980
  52         0.00726775
  53         0.41331046
  54        -0.40125113
  55         0.00625330
  56        -0.04204809
  57        -0.02746954
  58         0.01529090
  59         0.33522605
  60         0.06712449
  61         0.01315356
  62         0.15466605
  63         1.05944326
  64         0.12057386
  65        -0.23862090
  66         0.01066126
  67         0.49250330
  68         0.83724993
  69        -0.08803939
  70        -0.08828821
  71        -0.04335520
  72        -0.00727086
  73         0.26596759
  74         0.27557786
  75        -0.16160986
  76         0.05995877
  77         0.07454280
  78        -0.29108495
  79         0.01700305
  80        -0.11554447
  81         0.09399110
  82         0.31724554
  83         0.17200137
  84        -0.03004260
  85        -0.11847917
  86         0.08979417
  87        -0.24285186
  88         0.27266660
  89        -0.00635917
  90        -0.15899630
  91         0.06267159
  92        -0.17444082
  93        -0.25573462
  94         0.02821355
Sym=    71a  
Ene=     1.8214
Spin= Alpha
Occup=    0.00000
   1        -0.02657765
   2        -0.18181316
   3        -0.34944213
   4         0.37683914
   5        -0.00102082
   6        -0.00235839
   7         0.00022709
   8        -0.01897953
   9        -0.09017233
  10         0.00759151
  11        -0.04782420
  12        -0.24404455
  13         0.02037468
  14        -0.23811702
  15        -0.02071940
  16        -0.03834557
  17        -0.08622609
  18         0.03363747
  19         0.15130978
  20         0.56563886
  21        -0.89455851
  22         0.00085963
  23        -0.22775362
  24         0.01647612
  25        -0.31222816
  26         0.70790306
  27        -0.03409642
  28         0.30685363
  29         0.01326985
  30         0.05256970
  31         0.22786190
  32         0.05220553
  33         0.32881127
  34         1.40136145
  35        -0.49364245
  36        -0.25127871
  37         0.33722029
  38        -0.01055189
  39         0.98303925
  40        -0.88203416
  41         0.00960157
  42         0.35498192
  43         0.05370097
  44         0.03942214
  45        -0.17761085
  46        -0.13093187
  47         0.32634926
  48         1.38979323
  49        -0.47974978
  50         0.34645883
  51         0.22871431
  52        -0.03579734
  53        -1.21331863
  54        -0.47896528
  55         0.10196085
  56         0.35682617
  57         0.02139289
  58         0.02911746
  59        -0.05304921
  60         0.21948829
  61         0.15297298
  62         0.57247513
  63        -0.91850023
  64        -0.07572774
  65        -0.21111698
  66         0.01952202
  67         0.51727228
  68         0.54553390
  69        -0.06826880
  70         0.30744410
  71         0.03567200
  72         0.05967916
  73         0.14015302
  74        -0.18730130
  75         0.13901544
  76         0.11046875
  77         0.00487551
  78        -0.36794317
  79         0.02643923
  80        -0.55756514
  81        -0.00947935
  82        -0.15498909
  83         0.01638214
  84         0.00740660
  85        -0.55521728
  86        -0.00770110
  87         0.15387896
  88        -0.03955212
  89        -0.00566722
  90         0.13906875
  91         0.10851661
  92        -0.12544770
  93        -0.33923418
  94         0.03159310
Sym=    72a  
Ene=     1.8355
Spin= Alpha
Occup=    0.00000
   1         0.00028438
   2         0.00200114
   3         0.00577816
   4        -0.02039250
   5         0.03807430
   6        -0.00624741
   7        -0.00165394
   8         0.30356650
   9        -0.05321943
  10        -0.01293859
  11         0.86128095
  12        -0.14975099
  13        -0.03680488
  14        -0.00413791
  15         0.03889298
  16         0.01190311
  17        -0.15353630
  18        -0.42188303
  19        -0.03406708
  20        -0.18862573
  21        -0.66726672
  22         0.14236246
  23         0.06621279
  24        -0.01268197
  25        -0.34456933
  26        -1.25750394
  27         0.11037129
  28         0.05670335
  29        -0.00809774
  30        -0.02033298
  31        -0.14870142
  32         0.29834499
  33        -0.11014807
  34        -0.54673657
  35        -0.72364975
  36        -0.05834828
  37        -0.29355230
  38         0.02453059
  39         0.39916547
  40         0.89540337
  41        -0.08711363
  42        -0.04471378
  43        -0.00893248
  44        -0.02020012
  45        -0.09554411
  46         0.13535836
  47         0.11478654
  48         0.56812567
  49         0.72428802
  50         0.05384753
  51         0.29775445
  52        -0.02460645
  53         0.03407475
  54        -0.97785311
  55         0.06908365
  56         0.04908336
  57        -0.00694476
  58         0.01507477
  59         0.15487699
  60         0.04299795
  61         0.02932138
  62         0.16470613
  63         0.68506767
  64         0.10263821
  65        -0.10923330
  66         0.00225613
  67         0.13419562
  68         1.30794425
  69        -0.10236767
  70        -0.05492662
  71        -0.03192812
  72         0.00785062
  73         0.30603314
  74         0.13305167
  75         0.50310026
  76        -0.16390293
  77        -0.01189260
  78         0.51381886
  79        -0.03664861
  80         0.45477499
  81        -0.06838206
  82        -0.32310226
  83        -0.13941249
  84         0.02800928
  85        -0.46513533
  86         0.06676336
  87        -0.24530812
  88         0.23109762
  89        -0.00319713
  90        -0.49418629
  91         0.16572065
  92        -0.18638467
  93        -0.48140495
  94         0.04526153
Sym=    73a  
Ene=     1.8717
Spin= Alpha
Occup=    0.00000
   1        -0.00000142
   2        -0.00000974
   3        -0.00001936
   4         0.00008834
   5        -0.00055282
   6        -0.00072592
   7        -0.00996773
   8        -0.00778562
   9        -0.01021024
  10        -0.14045218
  11         0.00586237
  12         0.00764119
  13         0.10551742
  14        -0.02096612
  15         0.01236581
  16         0.15590470
  17        -0.01065545
  18         0.00963559
  19         0.00000358
  20         0.00001734
  21        -0.00012542
  22        -0.01270926
  23        -0.01664546
  24        -0.22965010
  25        -0.00846135
  26        -0.01125644
  27        -0.15423080
  28        -0.04904589
  29        -0.13099935
  30         0.48671385
  31        -0.04266975
  32         0.01765322
  33        -0.00001793
  34        -0.00006119
  35         0.00027788
  36         0.00310582
  37         0.00410829
  38         0.05682508
  39         0.00577665
  40         0.00795825
  41         0.10698220
  42        -0.08452916
  43         0.22190344
  44         0.49730746
  45        -0.02389215
  46         0.04403879
  47         0.00000644
  48         0.00000885
  49        -0.00028233
  50         0.00337458
  51         0.00452241
  52         0.06190769
  53         0.00602718
  54         0.00791106
  55         0.11082060
  56        -0.06503464
  57        -0.04009759
  58         0.54342315
  59        -0.04177086
  60         0.02750299
  61         0.00001000
  62         0.00004125
  63         0.00004999
  64        -0.01356215
  65        -0.01783070
  66        -0.24500456
  67        -0.00801134
  68        -0.01050924
  69        -0.14471044
  70        -0.08010891
  71         0.28364974
  72         0.41549247
  73        -0.01456293
  74         0.04393806
  75         0.00001537
  76        -0.00002950
  77         0.02460625
  78         0.03227688
  79         0.44431284
  80         0.00007732
  81         0.00001637
  82         0.01849531
  83         0.02421137
  84         0.33356972
  85        -0.00005894
  86        -0.00000791
  87         0.01817146
  88         0.02385518
  89         0.32821697
  90        -0.00003142
  91         0.00002117
  92         0.02460887
  93         0.03225709
  94         0.44435371
Sym=    74a  
Ene=     1.9141
Spin= Alpha
Occup=    0.00000
   1         0.07905412
   2         0.53316045
   3         0.97834330
   4        -4.02764781
   5         0.02491332
   6         0.12457684
   7        -0.01042271
   8         0.17690501
   9         0.89273403
  10        -0.07460038
  11         0.10268981
  12         0.62446564
  13        -0.05100607
  14         0.45182302
  15         0.04721128
  16         0.04863485
  17        -0.09858585
  18         0.02631854
  19        -0.22825049
  20        -0.92233499
  21         1.50469564
  22         0.09095792
  23         0.26133570
  24        -0.02401630
  25        -1.10142971
  26         1.21570480
  27        -0.02727994
  28        -0.31525673
  29         0.00608784
  30        -0.02739518
  31        -0.13408780
  32        -0.39938105
  33         0.01728532
  34         0.13556951
  35         0.76760846
  36        -0.02866325
  37         0.06431558
  38        -0.00309713
  39         0.97805324
  40        -0.14380268
  41        -0.04367687
  42        -0.03763988
  43        -0.00957645
  44        -0.00626097
  45         0.02635159
  46         0.06115463
  47         0.02446121
  48         0.16931012
  49         0.65589222
  50         0.08154332
  51         0.02391078
  52        -0.00626724
  53        -1.03087935
  54         0.25100168
  55         0.03881821
  56        -0.04092486
  57         0.00290435
  58        -0.00150970
  59        -0.01369823
  60        -0.08332435
  61        -0.23281577
  62        -0.93848160
  63         1.53608026
  64        -0.00625647
  65         0.28376587
  66        -0.02026093
  67         1.52568696
  68         0.74356645
  69        -0.13843274
  70        -0.31740965
  71        -0.06854250
  72        -0.05430744
  73         0.12991414
  74         0.42024991
  75         0.21876124
  76         0.06465506
  77         0.05636037
  78        -0.23386795
  79         0.01387327
  80        -0.31400757
  81         0.00931999
  82        -0.45511037
  83        -0.28134990
  84         0.04564841
  85        -0.28090817
  86        -0.01015500
  87         0.33097344
  88        -0.43781252
  89         0.01350930
  90         0.27852387
  91         0.04727715
  92        -0.15151648
  93        -0.19165338
  94         0.02232138
Sym=    75a  
Ene=     1.9386
Spin= Alpha
Occup=    0.00000
   1        -0.00001586
   2        -0.00010584
   3        -0.00017662
   4         0.00080823
   5         0.00060844
   6         0.00025082
   7         0.00468585
   8         0.00763149
   9         0.00578232
  10         0.08914610
  11        -0.00156760
  12        -0.00110598
  13        -0.01528741
  14         0.00966657
  15        -0.00160464
  16        -0.07585585
  17         0.00483705
  18        -0.00607588
  19        -0.00014361
  20        -0.00098421
  21        -0.00133380
  22         0.00117457
  23         0.00126722
  24         0.02337631
  25         0.00931701
  26         0.00700581
  27         0.10616729
  28         0.08254636
  29        -0.20114070
  30        -0.49554821
  31         0.02733460
  32        -0.04168460
  33        -0.00055821
  34        -0.00265059
  35         0.00465618
  36        -0.01912362
  37        -0.02778788
  38        -0.39294733
  39        -0.00492510
  40        -0.00307755
  41        -0.04136100
  42         0.03598921
  43        -0.40623725
  44         0.02609486
  45        -0.02561437
  46        -0.02871779
  47         0.00055835
  48         0.00262690
  49        -0.00494734
  50        -0.01979409
  51        -0.03048734
  52        -0.39783401
  53        -0.00455005
  54        -0.00229379
  55        -0.04351948
  56        -0.02300399
  57         0.38869136
  58        -0.11479552
  59         0.03046867
  60         0.02081463
  61         0.00023153
  62         0.00131716
  63         0.00071661
  64         0.00182419
  65         0.00271735
  66         0.03322555
  67         0.00838174
  68         0.00633213
  69         0.09836202
  70         0.06576120
  71         0.02885718
  72        -0.54159581
  73         0.03957931
  74        -0.02627156
  75        -0.00313166
  76         0.00126335
  77         0.00894449
  78         0.01403251
  79         0.18844607
  80        -0.00142137
  81         0.00114494
  82         0.03134083
  83         0.04246859
  84         0.57346664
  85         0.00150160
  86        -0.00113940
  87         0.03134351
  88         0.04164125
  89         0.58023118
  90         0.00306298
  91        -0.00128892
  92         0.00927823
  93         0.01434731
  94         0.19408623
Sym=    76a  
Ene=     1.9394
Spin= Alpha
Occup=    0.00000
   1        -0.00281131
   2        -0.01881816
   3        -0.03150236
   4         0.14271289
   5         0.07628179
   6        -0.01838323
   7        -0.00291015
   8         0.58946336
   9        -0.14258238
  10        -0.02269636
  11        -0.15550474
  12         0.00522923
  13         0.00830674
  14        -0.02217861
  15         0.03195282
  16         0.00878193
  17        -0.12934163
  18        -0.36897348
  19        -0.03599752
  20        -0.23404859
  21        -0.28496954
  22        -0.02282998
  23        -0.08554609
  24         0.00735189
  25         0.74707880
  26        -0.14782082
  27        -0.03112746
  28         0.05076127
  29        -0.03369088
  30         0.03798304
  31         0.51691523
  32         0.15064212
  33        -0.12760138
  34        -0.59792044
  35         1.10939976
  36         0.56691827
  37         0.16031834
  38        -0.04121540
  39        -0.59673977
  40         0.01338272
  41         0.03226996
  42        -0.00469451
  43         0.02463465
  44        -0.01415722
  45        -0.27157780
  46        -0.11182852
  47         0.12798631
  48         0.59515967
  49        -1.16480875
  50         0.47968723
  51        -0.34879271
  52         0.00060744
  53        -0.50820172
  54         0.17575629
  55         0.01559209
  56         0.00712509
  57         0.00986003
  58         0.02546099
  59         0.13553214
  60        -0.25275975
  61         0.05087352
  62         0.28973479
  63         0.18184460
  64        -0.00253562
  65         0.06265564
  66        -0.00457223
  67         0.65695433
  68        -0.17189184
  69        -0.02434602
  70        -0.02413318
  71        -0.01568717
  72        -0.04641040
  73        -0.31083533
  74         0.41647174
  75        -0.68370967
  76         0.27674035
  77        -0.32518003
  78         0.08029516
  79         0.01132959
  80        -0.31415398
  81         0.26038924
  82        -0.09332575
  83         0.17871180
  84        -0.01042470
  85         0.33044079
  86        -0.26012962
  87        -0.16683646
  88        -0.10842241
  89         0.01445034
  90         0.66915329
  91        -0.28066195
  92        -0.32290112
  93         0.05212569
  94         0.01319931
Sym=    77a  
Ene=     2.0091
Spin= Alpha
Occup=    0.00000
   1         0.00000249
   2         0.00001829
   3         0.00004599
   4        -0.00006849
   5        -0.00002496
   6        -0.00003772
   7        -0.00048513
   8        -0.00025254
   9        -0.00036654
  10        -0.00484634
  11         0.00025682
  12         0.00034349
  13         0.00447270
  14        -0.00068177
  15         0.01458771
  16        -0.00572080
  17         0.00122119
  18         0.00072902
  19        -0.00000622
  20        -0.00003568
  21        -0.00003804
  22         0.01232311
  23         0.01617694
  24         0.22237914
  25        -0.00127182
  26        -0.00169765
  27        -0.02357370
  28        -0.05378684
  29         0.47758495
  30         0.06017715
  31         0.02202432
  32         0.03825633
  33        -0.00000290
  34        -0.00000478
  35         0.00006965
  36         0.01043765
  37         0.01366671
  38         0.18792304
  39         0.00040132
  40         0.00054931
  41         0.00742769
  42         0.03037202
  43         0.05080769
  44        -0.27840167
  45         0.02304418
  46        -0.01183197
  47        -0.00000568
  48        -0.00000951
  49         0.00014047
  50        -0.01017407
  51        -0.01330850
  52        -0.18366591
  53        -0.00037456
  54        -0.00042225
  55        -0.00680299
  56        -0.04424311
  57         0.13532811
  58         0.24549978
  59        -0.01041980
  60         0.02360077
  61        -0.00000797
  62        -0.00003897
  63        -0.00006861
  64        -0.01260158
  65        -0.01647760
  66        -0.22766184
  67         0.00137669
  68         0.00185937
  69         0.02480433
  70        -0.01421145
  71         0.43210142
  72        -0.21729431
  73         0.03969358
  74         0.01941507
  75        -0.00001436
  76        -0.00000088
  77        -0.03525127
  78        -0.04623899
  79        -0.63663316
  80        -0.00000445
  81         0.00000615
  82        -0.02326915
  83        -0.03053941
  84        -0.42077586
  85        -0.00000018
  86         0.00001384
  87         0.02296085
  88         0.03014605
  89         0.41512627
  90         0.00000294
  91        -0.00000748
  92         0.03527357
  93         0.04625359
  94         0.63737252
Sym=    78a  
Ene=     2.0202
Spin= Alpha
Occup=    0.00000
   1        -0.00048807
   2        -0.00319585
   3        -0.00381061
   4         0.02527003
   5         0.10559574
   6        -0.01977429
   7        -0.00440992
   8         0.74186406
   9        -0.14128370
  10        -0.03081120
  11         0.88116633
  12        -0.16006611
  13        -0.03713916
  14        -0.00844375
  15         0.05419064
  16         0.01648521
  17        -0.21359313
  18        -0.59166482
  19         0.31540305
  20         1.27269373
  21        -0.07674053
  22        -0.20003191
  23        -0.33843748
  24         0.03564437
  25         1.07561211
  26        -1.78356014
  27         0.06989923
  28         0.42139927
  29         0.01568331
  30         0.03468078
  31         0.00378330
  32         0.34039006
  33         0.10373893
  34         0.39166770
  35        -0.23041311
  36        -0.14984398
  37        -0.01234129
  38         0.00919068
  39        -2.23409526
  40        -1.64947940
  41         0.24346443
  42         0.16181085
  43         0.01781002
  44         0.03272825
  45         0.09164663
  46        -0.09898207
  47        -0.10268697
  48        -0.38826980
  49         0.21244290
  50        -0.13445706
  51         0.06240995
  52         0.00292146
  53        -1.53427201
  54         2.31551934
  55        -0.08316605
  56        -0.16039384
  57        -0.00677911
  58        -0.02921621
  59        -0.13507375
  60        -0.01720681
  61        -0.31388799
  62        -1.26924039
  63         0.06663189
  64        -0.07902142
  65         0.37906467
  66        -0.02314232
  67         1.60087244
  68         1.29344287
  69        -0.18255632
  70        -0.41334632
  71        -0.07009134
  72        -0.05107769
  73         0.21183992
  74         0.25215363
  75        -0.20874556
  76        -0.26314746
  77         0.06937469
  78         0.25159925
  79        -0.02210600
  80        -0.18111160
  81        -0.13297684
  82         0.49953085
  83         0.21242486
  84        -0.04307990
  85         0.18432247
  86         0.13199257
  87         0.39517745
  88        -0.36752286
  89         0.00480073
  90         0.20687522
  91         0.26304840
  92        -0.01741810
  93        -0.25665149
  94         0.01958275
Sym=    79a  
Ene=     2.0852
Spin= Alpha
Occup=    0.00000
   1         0.05016975
   2         0.36673676
   3         0.90416546
   4        -1.65267529
   5        -0.00395480
   6        -0.02165792
   7         0.00179096
   8        -0.01973861
   9        -0.11126827
  10         0.00916810
  11         0.08350802
  12         0.45897236
  13        -0.03793851
  14         0.05181664
  15         0.00350025
  16         0.01138806
  17         0.05205505
  18        -0.01843502
  19        -0.22566072
  20        -1.04879335
  21         0.08041132
  22         0.25849430
  23         0.74568135
  24        -0.06844076
  25        -0.02707903
  26         0.38895035
  27        -0.02672990
  28         0.17118198
  29         0.00031862
  30         0.04053160
  31         0.27183084
  32         0.01608386
  33         0.00431787
  34         0.19415242
  35         1.06184699
  36         0.40649683
  37         0.30695799
  38        -0.04479831
  39         0.13484943
  40         0.38565794
  41        -0.03546098
  42        -0.33771451
  43        -0.06825035
  44        -0.08635618
  45        -0.14170930
  46         0.59382826
  47         0.00438255
  48         0.19224250
  49         1.05223926
  50        -0.28651511
  51         0.43035978
  52        -0.01537769
  53        -0.02480866
  54         0.43591906
  55        -0.03027924
  56        -0.33874557
  57         0.02157797
  58        -0.05865765
  59        -0.49843829
  60        -0.36741388
  61        -0.22201370
  62        -1.03428160
  63         0.03627824
  64         0.01055021
  65         0.79182033
  66        -0.05808580
  67         0.15723884
  68         0.37811121
  69        -0.03616091
  70         0.17383756
  71         0.01950140
  72         0.04664712
  73         0.19515195
  74        -0.18467555
  75        -0.07635784
  76         0.04924750
  77        -0.10879925
  78        -0.39705856
  79         0.03488666
  80         0.01947192
  81         0.02094865
  82         0.28987512
  83        -0.06016918
  84        -0.01165232
  85         0.02243256
  86         0.01787575
  87        -0.29091934
  88         0.04039040
  89         0.01314635
  90        -0.06971448
  91         0.04306454
  92        -0.03603653
  93        -0.41601482
  94         0.03216266
Sym=    80a  
Ene=     2.0987
Spin= Alpha
Occup=    0.00000
   1         0.00024578
   2         0.00184678
   3         0.00526165
   4        -0.00734695
   5         0.05681561
   6        -0.01035030
   7        -0.00239320
   8         0.35150338
   9        -0.06457151
  10        -0.01477052
  11        -0.46762776
  12         0.08585533
  13         0.01963433
  14        -0.00188048
  15         0.02212118
  16         0.00691647
  17        -0.08635521
  18        -0.24002376
  19         0.27856757
  20         1.04146778
  21        -3.19330211
  22        -0.00630555
  23         0.01786340
  24        -0.00096717
  25         0.68959337
  26         1.38275151
  27        -0.13852933
  28         0.37545309
  29         0.02588878
  30         0.02755000
  31        -0.10529835
  32         0.22216547
  33         0.02336339
  34        -0.11154494
  35        -1.17474544
  36         0.83346784
  37        -0.04234673
  38        -0.04306199
  39         2.57354549
  40         0.83653347
  41        -0.20323047
  42         0.46870631
  43         0.05396718
  44         0.00326549
  45        -0.54530625
  46         0.29491286
  47        -0.02234212
  48         0.11771484
  49         1.17989869
  50         0.79468582
  51        -0.24254544
  52        -0.02638003
  53         2.13587202
  54        -1.67200996
  55         0.00313797
  56        -0.47077465
  57        -0.06888239
  58        -0.00857812
  59         0.59936038
  60        -0.13388767
  61        -0.28151641
  62        -1.05569533
  63         3.19720579
  64        -0.01260401
  65        -0.00686271
  66         0.00118934
  67         0.18174584
  68        -1.53548224
  69         0.10145468
  70        -0.37085418
  71        -0.05520204
  72        -0.03596943
  73         0.22474788
  74         0.09496761
  75         0.36724086
  76        -0.44496450
  77         0.08342733
  78        -0.43970242
  79         0.02730466
  80         0.17328121
  81        -0.25583275
  82        -0.19616170
  83        -0.11106646
  84         0.01890534
  85        -0.17228477
  86         0.25513489
  87        -0.15111369
  88         0.17316044
  89        -0.00422384
  90        -0.36863880
  91         0.44640066
  92         0.22762994
  93         0.37972392
  94        -0.04017639
Sym=    81a  
Ene=     2.2170
Spin= Alpha
Occup=    0.00000
   1         0.00000109
   2         0.00000742
   3         0.00001440
   4        -0.00006590
   5         0.00055468
   6         0.00073512
   7         0.01007841
   8         0.00634765
   9         0.00837912
  10         0.11508461
  11        -0.00200508
  12        -0.00260227
  13        -0.03612390
  14         0.02776917
  15        -0.03025487
  16        -0.19589685
  17         0.01259777
  18        -0.01315973
  19        -0.00003074
  20        -0.00011294
  21         0.00028960
  22        -0.00055734
  23        -0.00070804
  24        -0.00954299
  25        -0.00007410
  26         0.00001737
  27         0.00069294
  28        -0.08832152
  29         0.70303686
  30         0.16009868
  31         0.02718272
  32         0.06033272
  33         0.00000733
  34         0.00002306
  35        -0.00019749
  36         0.00176957
  37         0.00229297
  38         0.03233991
  39         0.00014673
  40         0.00014444
  41         0.00249730
  42        -0.05994981
  43        -0.04336594
  44         0.50611333
  45        -0.03921605
  46         0.02515352
  47         0.00002891
  48         0.00011218
  49        -0.00018917
  50         0.00170805
  51         0.00223431
  52         0.03073330
  53         0.00020025
  54         0.00013265
  55         0.00336070
  56        -0.07872344
  57         0.19648604
  58         0.47120504
  59        -0.02340451
  60         0.04070904
  61         0.00000236
  62         0.00001003
  63         0.00012654
  64        -0.00059552
  65        -0.00087838
  66        -0.01148361
  67        -0.00010103
  68        -0.00012559
  69        -0.00116458
  70         0.00695195
  71        -0.60556535
  72         0.40677662
  73        -0.06302583
  74        -0.02150641
  75        -0.00000767
  76         0.00004763
  77        -0.03178229
  78        -0.04166147
  79        -0.57373176
  80         0.00002563
  81        -0.00003687
  82         0.02052095
  83         0.02687113
  84         0.37030908
  85         0.00000934
  86        -0.00002891
  87         0.02049593
  88         0.02688002
  89         0.37033640
  90        -0.00003887
  91         0.00002686
  92        -0.03166485
  93        -0.04156790
  94        -0.57258467
Sym=    82a  
Ene=     2.2255
Spin= Alpha
Occup=    0.00000
   1        -0.00001525
   2        -0.00010498
   3        -0.00021105
   4         0.00083633
   5        -0.00003449
   6        -0.00006783
   7        -0.00055628
   8        -0.00030351
   9        -0.00055759
  10        -0.00501464
  11         0.00024125
  12         0.00014006
  13         0.00499318
  14        -0.01477905
  15         0.20445988
  16        -0.03976836
  17         0.01410113
  18         0.01273230
  19         0.00013591
  20         0.00051199
  21        -0.00158658
  22         0.01124585
  23         0.01455803
  24         0.19963231
  25         0.00310606
  26         0.00361884
  27         0.04688257
  28         0.07994281
  29        -0.08572067
  30        -0.56374177
  31         0.03619936
  32        -0.03788227
  33        -0.00011853
  34        -0.00046261
  35         0.00116638
  36         0.00242752
  37         0.00315180
  38         0.04121431
  39        -0.00243482
  40        -0.00279256
  41        -0.04486267
  42         0.12324421
  43        -0.94882450
  44        -0.24952493
  45        -0.03434949
  46        -0.08327597
  47        -0.00011606
  48        -0.00043245
  49         0.00133899
  50        -0.00226798
  51        -0.00270985
  52        -0.04050018
  53         0.00262465
  54         0.00372175
  55         0.04484537
  56         0.00717784
  57        -0.81309808
  58         0.56186738
  59        -0.08584003
  60        -0.02791208
  61         0.00013740
  62         0.00051418
  63        -0.00164394
  64        -0.01159510
  65        -0.01482133
  66        -0.20629439
  67        -0.00281829
  68        -0.00276400
  69        -0.04373370
  70        -0.08175776
  71         0.11780855
  72         0.55632259
  73        -0.03396527
  74         0.03985667
  75         0.00009266
  76        -0.00025355
  77        -0.00100194
  78        -0.00147403
  79        -0.02057223
  80        -0.00006648
  81         0.00020499
  82         0.00595342
  83         0.00798436
  84         0.10903390
  85        -0.00008534
  86         0.00022977
  87        -0.00627932
  88        -0.00834032
  89        -0.11546012
  90         0.00008988
  91        -0.00025653
  92         0.00155380
  93         0.00228383
  94         0.03047317
Sym=    83a  
Ene=     2.2300
Spin= Alpha
Occup=    0.00000
   1        -0.02512849
   2        -0.16771772
   3        -0.29564425
   4         1.58312287
   5        -0.01255600
   6        -0.07045987
   7         0.00581079
   8        -0.08855010
   9        -0.49519665
  10         0.04085836
  11        -0.06767235
  12        -0.39738868
  13         0.03259076
  14        -0.12674982
  15        -0.00646201
  16        -0.03505167
  17        -0.20406443
  18         0.07394756
  19         0.28100881
  20         1.02082379
  21        -3.83684285
  22         0.60445211
  23         0.34116545
  24        -0.05829832
  25         1.09595196
  26         0.64235042
  27        -0.10732133
  28         0.48246198
  29         0.07205158
  30         0.05982138
  31        -0.18230562
  32        -0.20886208
  33        -0.27657249
  34        -1.02176872
  35         3.21350971
  36         0.26352219
  37         0.50769296
  38        -0.05146263
  39         0.27159829
  40         1.15389339
  41        -0.09877075
  42        -0.47363004
  43        -0.03716020
  44        -0.08213907
  45        -0.24812193
  46         0.07448278
  47        -0.27673640
  48        -1.02019959
  49         3.24764162
  50        -0.07211765
  51         0.57690245
  52        -0.03787058
  53         0.13667832
  54         1.19126636
  55        -0.09409837
  56        -0.47916190
  57        -0.03977535
  58        -0.08379274
  59        -0.23990307
  60         0.09606810
  61         0.28248724
  62         1.02490574
  63        -3.86769116
  64        -0.45601506
  65         0.53546771
  66        -0.01356644
  67        -0.81935396
  68         0.99424675
  69        -0.02682968
  70         0.49019758
  71         0.02645218
  72         0.04621567
  73         0.00167118
  74         0.28407106
  75         0.27772217
  76        -0.63488978
  77         0.36661017
  78        -0.01894523
  79        -0.01894367
  80        -0.24573160
  81         0.55052862
  82        -0.19102193
  83         0.19047968
  84        -0.00327348
  85        -0.24730203
  86         0.55534630
  87         0.24714841
  88         0.11361220
  89        -0.02186924
  90         0.27646318
  91        -0.63819762
  92        -0.35214301
  93         0.11060888
  94         0.01140823
Sym=    84a  
Ene=     2.2668
Spin= Alpha
Occup=    0.00000
   1         0.00007739
   2         0.00051412
   3         0.00102014
   4        -0.00505437
   5        -0.05930196
   6         0.01084944
   7         0.00249465
   8        -0.40152612
   9         0.07347909
  10         0.01688741
  11         0.31680809
  12        -0.05522525
  13        -0.01352060
  14         0.00067124
  15        -0.01067754
  16        -0.00316319
  17         0.04319187
  18         0.11437893
  19        -0.24102051
  20        -0.79963470
  21         4.05892414
  22        -0.52845067
  23        -0.56842419
  24         0.07051216
  25        -1.30127538
  26        -1.12931353
  27         0.15399254
  28        -0.57034105
  29        -0.07492860
  30        -0.10955788
  31        -0.19216811
  32         0.41618049
  33         0.05679339
  34         0.00527016
  35        -4.09979683
  36         0.11097012
  37        -1.01285724
  38         0.06737234
  39        -0.46266848
  40        -1.66681531
  41         0.14661215
  42         0.57568634
  43         0.06658317
  44         0.07644094
  45        -0.04230948
  46        -0.11697236
  47        -0.05404825
  48         0.00517383
  49         4.07075363
  50         0.44660199
  51         0.90891868
  52        -0.09073172
  53         0.12884679
  54         1.71563301
  55        -0.13171487
  56        -0.57327845
  57        -0.04400635
  58        -0.06891671
  59        -0.04283250
  60        -0.12407793
  61         0.23860591
  62         0.79049273
  63        -4.02643521
  64        -0.30090145
  65         0.71181059
  66        -0.03502911
  67        -0.83515954
  68         1.50111615
  69        -0.06278860
  70         0.57011109
  71         0.01747819
  72         0.09158630
  73         0.41808874
  74         0.19915709
  75        -0.04009442
  76         0.50383416
  77        -0.24988223
  78        -0.03363349
  79         0.01628473
  80         0.07830058
  81        -0.52410665
  82         0.28269847
  83        -0.20022394
  84        -0.00113185
  85        -0.07675361
  86         0.51940175
  87         0.33099717
  88         0.08892099
  89        -0.02479471
  90         0.03672718
  91        -0.49805460
  92        -0.21999013
  93         0.11787913
  94         0.00362581
Sym=    85a  
Ene=     2.3345
Spin= Alpha
Occup=    0.00000
   1         0.00008742
   2         0.00059540
   3         0.00075996
   4        -0.00452595
   5        -0.00811374
   6         0.00150384
   7         0.00034112
   8         0.01614493
   9        -0.00208968
  10        -0.00073108
  11        -0.09188896
  12         0.01770135
  13         0.00378831
  14         0.00172179
  15        -0.00939111
  16        -0.00292725
  17         0.03624659
  18         0.10336610
  19         0.05197599
  20         0.08744634
  21        -0.04560476
  22        -0.17036388
  23         0.16616503
  24        -0.00263024
  25        -0.01244944
  26         0.19904160
  27        -0.01375928
  28         0.28024205
  29         0.04197971
  30         0.09259234
  31         0.39696368
  32        -0.50367288
  33         0.53482476
  34         2.22195940
  35        -3.88001134
  36         0.57859970
  37         0.09827480
  38        -0.03915302
  39         1.33517554
  40        -1.06216062
  41         0.00316236
  42         0.16759939
  43        -0.01276811
  44         0.01530135
  45         0.14122530
  46         0.28999895
  47        -0.53565928
  48        -2.22575958
  49         3.88142355
  50         0.51242565
  51        -0.29487429
  52        -0.00694411
  53         1.61206120
  54         0.53775155
  55        -0.12832190
  56        -0.16350716
  57        -0.04288896
  58        -0.03258025
  59         0.07715909
  60         0.31219170
  61        -0.05191243
  62        -0.08571226
  63         0.05075720
  64        -0.21627938
  65        -0.09710410
  66         0.01902461
  67        -0.07581092
  68        -0.18214315
  69         0.01742202
  70        -0.28584774
  71         0.01704919
  72        -0.07474427
  73        -0.63211215
  74        -0.13412102
  75         0.00045844
  76         0.05085516
  77        -0.17118689
  78         0.31254633
  79        -0.01322670
  80        -0.06725613
  81        -0.57849705
  82        -0.00505340
  83        -0.47862604
  84         0.03502973
  85         0.06643065
  86         0.57871562
  87         0.15709094
  88         0.45251166
  89        -0.04154457
  90        -0.00071319
  91        -0.05098989
  92        -0.26882784
  93        -0.23606481
  94         0.03200601
Sym=    86a  
Ene=     2.4203
Spin= Alpha
Occup=    0.00000
   1        -0.05141860
   2        -0.36380566
   3        -0.79426461
   4         2.38023462
   5        -0.00377436
   6        -0.02193355
   7         0.00180109
   8        -0.01403878
   9        -0.08558650
  10         0.00698915
  11        -0.12004516
  12        -0.68385852
  13         0.05628734
  14        -0.14537454
  15        -0.02399681
  16         0.01378737
  17         0.34617336
  18        -0.12568613
  19         0.16533580
  20         0.49202311
  21        -2.50630071
  22        -0.12557627
  23         0.25886887
  24        -0.01184371
  25         1.06685198
  26        -0.11208453
  27        -0.05091990
  28         0.41747530
  29         0.04831253
  30         0.12278673
  31         0.55420905
  32        -0.52770347
  33         0.08566046
  34         0.45672128
  35         0.87883670
  36         0.79921098
  37         0.37585598
  38        -0.07152664
  39        -0.37821330
  40         0.49429092
  41        -0.01495104
  42        -0.21739383
  43        -0.03724743
  44        -0.01144140
  45         0.24808225
  46         0.03487346
  47         0.08368261
  48         0.44789387
  49         0.88463126
  50        -0.62280040
  51         0.62712949
  52        -0.01106746
  53         0.52753770
  54         0.33321902
  55        -0.05339174
  56        -0.21798173
  57        -0.01662163
  58        -0.00509631
  59         0.16673114
  60        -0.18686050
  61         0.16473657
  62         0.49024086
  63        -2.49972622
  64         0.20517951
  65         0.19839538
  66        -0.02576200
  67        -1.03948520
  68         0.25954501
  69         0.03868325
  70         0.41937204
  71        -0.00537222
  72         0.10566933
  73         0.76197207
  74         0.05261589
  75        -0.00840619
  76        -0.08352600
  77        -0.22893730
  78         0.40840637
  79        -0.01698296
  80        -0.05370832
  81         0.11866345
  82        -0.19414881
  83        -0.29589946
  84         0.03224126
  85        -0.05254528
  86         0.11979214
  87         0.08284838
  88        -0.34315064
  89         0.02031532
  90        -0.00771358
  91        -0.08343768
  92         0.35265322
  93         0.30376221
  94        -0.04156193
Sym=    87a  
Ene=     2.4510
Spin= Alpha
Occup=    0.00000
   1        -0.00000197
   2        -0.00001437
   3        -0.00003410
   4         0.00006744
   5        -0.00000556
   6        -0.00000657
   7        -0.00010086
   8        -0.00005730
   9        -0.00006952
  10        -0.00102892
  11         0.00004649
  12         0.00003898
  13         0.00088004
  14         0.00082017
  15        -0.01016906
  16         0.00125861
  17        -0.00064738
  18        -0.00067385
  19         0.00000428
  20         0.00001347
  21        -0.00004697
  22         0.00611906
  23         0.00804695
  24         0.11089764
  25        -0.00094736
  26        -0.00127015
  27        -0.01749024
  28         0.08147713
  29        -0.54162986
  30        -0.22951766
  31        -0.01320382
  32        -0.05242315
  33         0.00001088
  34         0.00004359
  35        -0.00000183
  36        -0.00908441
  37        -0.01185127
  38        -0.16384347
  39         0.00086815
  40         0.00111972
  41         0.01566907
  42         0.07942842
  43         0.27630905
  44        -0.83714394
  45         0.07617907
  46        -0.02665546
  47         0.00001594
  48         0.00005913
  49        -0.00008064
  50         0.00907673
  51         0.01193003
  52         0.16357186
  53        -0.00090263
  54        -0.00117724
  55        -0.01553833
  56        -0.13929970
  57         0.53698463
  58         0.68909004
  59        -0.02048263
  60         0.07778086
  61         0.00000813
  62         0.00002712
  63        -0.00004220
  64        -0.00617525
  65        -0.00814579
  66        -0.11190925
  67         0.00098561
  68         0.00133541
  69         0.01818965
  70        -0.00976693
  71        -0.43153444
  72         0.40607971
  73        -0.05335755
  74        -0.00879781
  75         0.00000882
  76         0.00000002
  77         0.01949365
  78         0.02559703
  79         0.35241077
  80         0.00000895
  81         0.00000043
  82        -0.03038218
  83        -0.03981626
  84        -0.54862622
  85         0.00000793
  86        -0.00000731
  87         0.03037477
  88         0.03982776
  89         0.54836396
  90         0.00000845
  91        -0.00000223
  92        -0.01942569
  93        -0.02549801
  94        -0.35132332
Sym=    88a  
Ene=     2.6841
Spin= Alpha
Occup=    0.00000
   1        -0.00244913
   2        -0.01455769
   3        -0.00385372
   4         0.10804985
   5        -0.00378892
   6        -0.00759140
   7         0.00076076
   8        -0.03078244
   9        -0.08412657
  10         0.00780978
  11         0.00048386
  12        -0.04165031
  13         0.00299617
  14        -0.06606786
  15        -0.00469553
  16        -0.01645428
  17        -0.08146820
  18         0.03846249
  19        -0.10028017
  20        -0.55543681
  21        -0.73845508
  22        -0.83660858
  23        -0.07167254
  24         0.05151467
  25         0.26746532
  26         0.21071238
  27        -0.03010620
  28         0.21697997
  29         0.03518284
  30        -0.00205466
  31        -0.35148629
  32         0.07148515
  33        -0.30128578
  34        -1.35512044
  35         0.80463733
  36        -0.23564145
  37         0.74589252
  38        -0.04111037
  39         0.12937234
  40         0.15334043
  41        -0.01828196
  42         0.09195027
  43        -0.02660470
  44         0.02811747
  45         0.37911853
  46         0.19919968
  47        -0.31403279
  48        -1.39035639
  49         1.10720244
  50         0.48079810
  51         0.59831176
  52        -0.07004925
  53         0.00582652
  54         0.28647562
  55        -0.02113919
  56         0.05282951
  57         0.02642701
  58         0.04192728
  59         0.16434480
  60        -0.41628184
  61        -0.10294208
  62        -0.57532016
  63        -0.88306945
  64         0.78476816
  65        -0.33997886
  66        -0.01875453
  67        -0.22903650
  68         0.33828185
  69        -0.01188168
  70         0.23525216
  71         0.02891099
  72        -0.00279869
  73        -0.32448785
  74         0.16108093
  75         1.21887735
  76        -0.30006570
  77        -0.74435024
  78        -0.19956475
  79         0.05568707
  80         1.20403233
  81        -0.22597799
  82        -0.46117201
  83         0.68868963
  84        -0.02445983
  85         1.18429834
  86        -0.20161665
  87         0.65036119
  88         0.47661276
  89        -0.07061363
  90         1.24831360
  91        -0.31619374
  92         0.64584448
  93        -0.47037640
  94        -0.00159140
Sym=    89a  
Ene=     2.6904
Spin= Alpha
Occup=    0.00000
   1        -0.00003047
   2        -0.00024152
   3         0.00018689
   4        -0.00034339
   5         0.10438461
   6        -0.01843287
   7        -0.00444024
   8         0.68870769
   9        -0.12337705
  10        -0.02916690
  11        -0.32942079
  12         0.05800945
  13         0.01402622
  14        -0.00369328
  15         0.03298153
  16         0.00997041
  17        -0.13115128
  18        -0.35728007
  19        -0.06380661
  20        -0.45482100
  21        -3.06914564
  22        -0.32280028
  23         0.49439170
  24        -0.01801185
  25         1.33553007
  26         0.59917529
  27        -0.11741412
  28         0.37239351
  29         0.00844294
  30         0.02889257
  31         0.02426585
  32         0.35881817
  33        -0.28027633
  34        -0.78086080
  35         6.54456665
  36        -0.28199488
  37        -0.39810443
  38         0.04452736
  39        -0.83963039
  40         2.54178421
  41        -0.13801278
  42        -0.76164110
  43        -0.11519841
  44        -0.09278497
  45         0.30934677
  46         0.33456292
  47         0.26924458
  48         0.73004094
  49        -6.52256102
  50        -0.10222616
  51         0.50589186
  52        -0.03105296
  53        -1.65203477
  54        -2.09502383
  55         0.24360512
  56         0.77212897
  57         0.04318455
  58         0.07173918
  59        -0.01783148
  60         0.44446760
  61         0.05612891
  62         0.41517622
  63         3.05320477
  64        -0.43884734
  65        -0.36780305
  66         0.05101380
  67         1.04802180
  68        -1.01514583
  69         0.01571333
  70        -0.35853752
  71        -0.06751657
  72        -0.04770620
  73         0.19948952
  74         0.29907353
  75         0.59698410
  76        -0.33426239
  77        -0.45752796
  78        -0.42573567
  79         0.05623369
  80        -0.42982232
  81         0.52260116
  82         0.24897414
  83        -0.35606217
  84         0.01206216
  85         0.49092708
  86        -0.53404606
  87         0.38419394
  88         0.27629832
  89        -0.04134048
  90        -0.53944974
  91         0.32042487
  92        -0.25455489
  93         0.54020830
  94        -0.02512938
Sym=    90a  
Ene=     2.7341
Spin= Alpha
Occup=    0.00000
   1        -0.00569015
   2        -0.07322218
   3        -0.38380830
   4        -0.40806217
   5         0.01660511
   6         0.09836375
   7        -0.00805946
   8         0.11229790
   9         0.66682574
  10        -0.05462090
  11        -0.00940044
  12        -0.06104143
  13         0.00494994
  14         0.16290638
  15         0.01210739
  16         0.03128406
  17         0.11667077
  18        -0.03834877
  19        -0.26336947
  20        -1.09710812
  21         1.95673076
  22         0.26576447
  23         0.25420995
  24        -0.03317222
  25        -0.60087580
  26        -0.40859573
  27         0.06292813
  28        -0.08819490
  29         0.05500349
  30         0.02769071
  31        -0.08503280
  32        -0.80540225
  33         0.33519725
  34         1.31937261
  35        -2.22923329
  36        -0.34094414
  37         0.87534940
  38        -0.04465084
  39        -0.09397398
  40        -0.69283240
  41         0.05548357
  42         0.22469028
  43         0.01586846
  44        -0.03117594
  45        -0.47991081
  46         0.44281905
  47         0.33221998
  48         1.31027502
  49        -2.16933398
  50         0.61704170
  51         0.70166794
  52        -0.08512753
  53        -0.12927587
  54        -0.66646266
  55         0.05556461
  56         0.21521113
  57         0.05923235
  58        -0.01843874
  59        -0.65315547
  60        -0.03250922
  61        -0.26459624
  62        -1.10453634
  63         1.93138782
  64        -0.15991718
  65         0.33305329
  66        -0.01532857
  67         0.41637934
  68        -0.58357277
  69         0.01932924
  70        -0.07498030
  71        -0.08092260
  72        -0.01424722
  73         0.44917877
  74         0.66893499
  75         0.11559347
  76         0.00707880
  77        -0.08826223
  78         0.43647328
  79        -0.02680319
  80         0.62477199
  81        -0.13656759
  82         0.23239067
  83         0.49542657
  84        -0.04881673
  85         0.62124513
  86        -0.13176862
  87        -0.05441828
  88         0.54485179
  89        -0.03656128
  90         0.12284264
  91         0.00317961
  92         0.23420577
  93         0.37457691
  94        -0.04015915
Sym=    91a  
Ene=     2.8487
Spin= Alpha
Occup=    0.00000
   1        -0.00000010
   2         0.00003182
   3         0.00064097
   4         0.00083673
   5         0.01256568
   6        -0.00233278
   7        -0.00052667
   8         0.09476193
   9        -0.01804000
  10        -0.00393932
  11        -0.03378613
  12         0.00585053
  13         0.00145109
  14        -0.00105445
  15         0.00656384
  16         0.00196756
  17        -0.02611617
  18        -0.07151543
  19         0.01488340
  20         0.21477906
  21         0.51121308
  22         1.17765629
  23         0.27847344
  24        -0.08540329
  25         0.00876067
  26        -0.18787831
  27         0.01314965
  28        -0.33012144
  29        -0.06918619
  30        -0.00777015
  31         0.54430180
  32         0.09850663
  33        -0.05634022
  34        -0.09046739
  35         1.62251060
  36         0.55146767
  37        -0.65221955
  38         0.01681911
  39        -0.79419054
  40         0.33019723
  41         0.02000853
  42        -0.30918723
  43        -0.00925275
  44        -0.07187181
  45        -0.42125683
  46         0.03595108
  47         0.05680186
  48         0.09300487
  49        -1.62068344
  50         0.73723632
  51         0.42003317
  52        -0.07131112
  53        -0.85815419
  54        -0.03537685
  55         0.05009002
  56         0.30679366
  57         0.02784038
  58         0.07737683
  59         0.34651831
  60        -0.23713803
  61        -0.01490451
  62        -0.21574008
  63        -0.51358388
  64         1.01125470
  65        -0.66925655
  66        -0.00737752
  67         0.07173820
  68         0.17414359
  69        -0.01662091
  70         0.33421990
  71         0.02048091
  72        -0.00739437
  73        -0.35370442
  74         0.42955631
  75        -1.65651620
  76         0.37435608
  77         0.87003894
  78         0.09101438
  79        -0.05476530
  80        -1.04228333
  81         0.33436846
  82         0.41702434
  83        -0.47537850
  84         0.01142209
  85         1.03637118
  86        -0.33263159
  87         0.55032433
  88         0.30096110
  89        -0.05232028
  90         1.65856679
  91        -0.37535487
  92         0.78728784
  93        -0.38589430
  94        -0.01555449
Sym=    92a  
Ene=     2.9417
Spin= Alpha
Occup=    0.00000
   1         0.00001838
   2         0.00019272
   3         0.00132047
   4         0.00059064
   5         0.06671394
   6        -0.01203624
   7        -0.00281841
   8         0.44395621
   9        -0.08081145
  10        -0.01870282
  11        -0.30934406
  12         0.05508579
  13         0.01311480
  14        -0.00242246
  15         0.02449311
  16         0.00751993
  17        -0.09655475
  18        -0.26553699
  19         0.38490642
  20         1.61374139
  21        -1.72811472
  22        -0.11358358
  23        -0.60233097
  24         0.05000263
  25         0.33834516
  26         0.71901513
  27        -0.07091160
  28        -0.05030156
  29        -0.06530581
  30        -0.02109985
  31         0.27443829
  32         0.62015064
  33         0.12721032
  34         0.56553623
  35        -0.28337382
  36        -0.69346346
  37        -0.42924762
  38         0.06956716
  39         1.10824052
  40         0.53848133
  41        -0.10045968
  42        -0.02861568
  43         0.02736876
  44         0.10950861
  45         0.78241608
  46        -1.00438129
  47        -0.12757671
  48        -0.56673582
  49         0.28719232
  50        -0.50759116
  51         0.64095941
  52        -0.01842455
  53         0.85946663
  54        -0.88727010
  55         0.01682976
  56         0.01998207
  57         0.09010730
  58        -0.07310979
  59        -1.24426321
  60        -0.26610493
  61        -0.38482575
  62        -1.61440454
  63         1.72461454
  64         0.09620786
  65         0.60319247
  66        -0.04913831
  67         0.07424517
  68        -0.79112705
  69         0.05335137
  70         0.05901810
  71        -0.05221484
  72        -0.01535841
  73         0.18674359
  74         0.65151598
  75        -0.54024948
  76         0.16620581
  77         0.31463360
  78        -0.22837935
  79        -0.00084623
  80        -0.35622953
  81         0.12994783
  82        -0.53131528
  83        -0.46172792
  84         0.06294413
  85         0.35342816
  86        -0.12911969
  87        -0.34389458
  88         0.61619730
  89        -0.02569447
  90         0.54205613
  91        -0.16693997
  92         0.37336343
  93         0.10518890
  94        -0.02831366
Sym=    93a  
Ene=     3.0482
Spin= Alpha
Occup=    0.00000
   1         0.02865998
   2         0.20800264
   3         0.47886511
   4        -1.10044405
   5         0.00201249
   6         0.01137423
   7        -0.00093728
   8         0.02521126
   9         0.14376354
  10        -0.01183312
  11         0.05463511
  12         0.31398977
  13        -0.02581727
  14         0.07607731
  15         0.00017553
  16         0.03287565
  17         0.24967800
  18        -0.09050395
  19         0.07034473
  20         0.53142606
  21         1.48802227
  22         0.70125377
  23         0.13466460
  24        -0.04859989
  25        -0.36701697
  26        -0.18251629
  27         0.03356882
  28        -0.47054956
  29        -0.11756813
  30        -0.00964997
  31         0.91442514
  32         0.29527127
  33        -0.09063753
  34        -0.54498319
  35        -0.94104591
  36        -0.15324388
  37         0.59980152
  38        -0.03506580
  39        -0.17232051
  40        -0.36429233
  41         0.03598157
  42         0.38355285
  43        -0.02726566
  44         0.07778872
  45         0.68172075
  46         0.36555573
  47        -0.09069896
  48        -0.54561422
  49        -0.94408431
  50         0.34823594
  51         0.51246122
  52        -0.05647871
  53         0.03777144
  54        -0.40264203
  55         0.02714995
  56         0.37755840
  57         0.07282763
  58         0.10890608
  59         0.28871688
  60        -0.71540495
  61         0.06984225
  62         0.52891766
  63         1.48887555
  64        -0.61126474
  65         0.36779869
  66         0.00713648
  67         0.28335146
  68        -0.29860017
  69         0.00599840
  70        -0.47671679
  71        -0.01445348
  72         0.02231036
  73         0.50886977
  74        -0.81765095
  75        -1.93663922
  76         0.68892957
  77         0.86236098
  78         0.01704555
  79        -0.04897627
  80         1.54016896
  81        -0.55843223
  82        -0.41951640
  83         0.58872279
  84        -0.01951504
  85         1.54373083
  86        -0.55970947
  87         0.59442900
  88         0.41002886
  89        -0.06267260
  90        -1.93274931
  91         0.68801642
  92        -0.80272697
  93         0.31282437
  94         0.02172687
Sym=    94a  
Ene=     3.5582
Spin= Alpha
Occup=    0.00000
   1         0.00002148
   2         0.00017208
   3         0.00070841
   4        -0.00043534
   5         0.02644359
   6        -0.00474199
   7        -0.00111871
   8         0.23600844
   9        -0.04249128
  10        -0.00997219
  11        -0.20362242
  12         0.03638429
  13         0.00862555
  14        -0.00091840
  15         0.01062548
  16         0.00328912
  17        -0.04173674
  18        -0.11517774
  19        -0.02631445
  20         0.04899334
  21         1.40510520
  22         0.37660724
  23         0.24709610
  24        -0.03877760
  25        -0.27579021
  26        -0.26402428
  27         0.03442713
  28        -0.32238354
  29        -0.11354763
  30         0.00533386
  31         0.95010095
  32         0.40945840
  33        -0.01283938
  34        -0.28706740
  35        -2.14351729
  36        -0.40864750
  37         0.47698540
  38        -0.01200163
  39         0.31257138
  40        -0.47750700
  41         0.01734856
  42         0.50967456
  43        -0.10376038
  44         0.07848675
  45         1.13934687
  46         1.23354316
  47         0.01279801
  48         0.28690149
  49         2.14328494
  50        -0.54550016
  51        -0.30734509
  52         0.05251229
  53         0.45535357
  54         0.34079230
  55        -0.04996704
  56        -0.49145287
  57        -0.16505666
  58        -0.16188834
  59        -0.08285842
  60         1.67148048
  61         0.02628213
  62        -0.04934287
  63        -1.40424049
  64         0.26937235
  65        -0.36249508
  66         0.01141767
  67        -0.16959884
  68         0.34336420
  69        -0.01555133
  70         0.33052967
  71        -0.01015978
  72        -0.04369672
  73        -0.46381039
  74         0.92694303
  75        -1.53035962
  76         0.62607378
  77         0.56695028
  78        -0.07945217
  79        -0.02562116
  80         2.46156386
  81        -1.07577524
  82        -0.36001323
  83         0.84461910
  84        -0.04139975
  85        -2.46139085
  86         1.07564951
  87        -0.62400109
  88        -0.66956978
  89         0.08313932
  90         1.52931452
  91        -0.62569952
  92         0.55924887
  93        -0.12088813
  94        -0.02218637
