[Molden Format]
[N_Atoms]
                    9
[Atoms] (AU)
S1          1     16           0.57474833      3.29542375     -0.27104877
C2          2      6           2.49643056      0.63207559     -0.18408179
C3          3      6           1.10287393     -1.53858799      0.05062573
C4          4      6          -1.55702769     -1.06538917      0.16357439
C5          5      6          -2.13233686      1.45552721      0.01235405
H6          6      1           4.53871208      0.83286608     -0.31171255
H7          7      1           1.94216763     -3.41844721      0.14063984
H8          8      1          -2.98179884     -2.54247309      0.34968101
H9          9      1          -3.98376918      2.34900480      0.04996810
[5D]
[Charge] (Mulliken)
  0.13676947931651817     
 -0.15994182671929025     
  -1.0229515226201968E-002
  -1.0229335117177385E-002
 -0.15994167373960710     
   6.5608577870694407E-002
   3.6177966622621294E-002
   3.6177830200237793E-002
   6.5608496790920734E-002
[GTO] (AU)
   1
   s  12
  1.108000000E+05  2.476349789E-04
  1.661000000E+04  1.920259836E-03
  3.781000000E+03  9.961919151E-03
  1.071000000E+03  4.029749656E-02
  3.498000000E+02  1.286039890E-01
  1.263000000E+02  3.034799741E-01
  4.926000000E+01  4.214319641E-01
  2.016000000E+01  2.307809803E-01
  5.720000000E+00  1.789709847E-02
  2.182000000E+00 -2.975159746E-03
  4.327000000E-01  8.495219276E-04
  1.570000000E-01 -3.679359686E-04
   s  12
  1.108000000E+05 -6.870389403E-05
  1.661000000E+04 -5.276809541E-04
  3.781000000E+03 -2.796709757E-03
  1.071000000E+03 -1.126509902E-02
  3.498000000E+02 -3.888339662E-02
  1.263000000E+02 -9.950249135E-02
  4.926000000E+01 -1.997399826E-01
  2.016000000E+01 -1.233599893E-01
  5.720000000E+00  5.131939554E-01
  2.182000000E+00  6.071199472E-01
  4.327000000E-01  3.967529655E-02
  1.570000000E-01 -9.468639177E-03
   s  12
  1.108000000E+05  1.990770288E-05
  1.661000000E+04  1.534830222E-04
  3.781000000E+03  8.095031173E-04
  1.071000000E+03  3.289740477E-03
  3.498000000E+02  1.129670164E-02
  1.263000000E+02  2.963850429E-02
  4.926000000E+01  5.998510869E-02
  2.016000000E+01  4.132480599E-02
  5.720000000E+00 -2.074740301E-01
  2.182000000E+00 -3.928890569E-01
  4.327000000E-01  6.328400917E-01
  1.570000000E-01  5.569240807E-01
   s   1
  1.570000000E-01  1.000000000E+00
   p   8
  3.997000000E+02  4.475409178E-03
  9.419000000E+01  3.417079372E-02
  2.975000000E+01  1.442499735E-01
  1.077000000E+01  3.539279350E-01
  4.119000000E+00  4.590849156E-01
  1.625000000E+00  2.063829621E-01
  4.726000000E-01  1.021409812E-02
  1.407000000E-01 -6.031218892E-05
   p   8
  3.997000000E+02 -1.162510528E-03
  9.419000000E+01 -8.656643933E-03
  2.975000000E+01 -3.908861776E-02
  1.077000000E+01 -9.346254246E-02
  4.119000000E+00 -1.479940672E-01
  1.625000000E+00  3.019041372E-02
  4.726000000E-01  5.615732551E-01
  1.407000000E-01  5.347762430E-01
   p   1
  1.407000000E-01  1.000000000E+00
   d   1
  4.790000000E-01  1.000000000E+00
 
   2
   s   9
  6.665000000E+03  6.920001793E-04
  1.000000000E+03  5.329001381E-03
  2.280000000E+02  2.707700701E-02
  6.471000000E+01  1.017180264E-01
  2.106000000E+01  2.747400712E-01
  7.495000000E+00  4.485641162E-01
  2.797000000E+00  2.850740738E-01
  5.215000000E-01  1.520400394E-02
  1.596000000E-01 -3.191000827E-03
   s   9
  6.665000000E+03 -1.460000642E-04
  1.000000000E+03 -1.154000508E-03
  2.280000000E+02 -5.725002519E-03
  6.471000000E+01 -2.331201026E-02
  2.106000000E+01 -6.395502813E-02
  7.495000000E+00 -1.499810660E-01
  2.797000000E+00 -1.272620560E-01
  5.215000000E-01  5.445292395E-01
  1.596000000E-01  5.804962554E-01
   s   1
  1.596000000E-01  1.000000000E+00
   p   4
  9.439000000E+00  3.810902127E-02
  2.002000000E+00  2.094801169E-01
  5.456000000E-01  5.085572839E-01
  1.517000000E-01  4.688422617E-01
   p   1
  1.517000000E-01  1.000000000E+00
   d   1
  5.500000000E-01  1.000000000E+00
 
   3
   s   9
  6.665000000E+03  6.920001793E-04
  1.000000000E+03  5.329001381E-03
  2.280000000E+02  2.707700701E-02
  6.471000000E+01  1.017180264E-01
  2.106000000E+01  2.747400712E-01
  7.495000000E+00  4.485641162E-01
  2.797000000E+00  2.850740738E-01
  5.215000000E-01  1.520400394E-02
  1.596000000E-01 -3.191000827E-03
   s   9
  6.665000000E+03 -1.460000642E-04
  1.000000000E+03 -1.154000508E-03
  2.280000000E+02 -5.725002519E-03
  6.471000000E+01 -2.331201026E-02
  2.106000000E+01 -6.395502813E-02
  7.495000000E+00 -1.499810660E-01
  2.797000000E+00 -1.272620560E-01
  5.215000000E-01  5.445292395E-01
  1.596000000E-01  5.804962554E-01
   s   1
  1.596000000E-01  1.000000000E+00
   p   4
  9.439000000E+00  3.810902127E-02
  2.002000000E+00  2.094801169E-01
  5.456000000E-01  5.085572839E-01
  1.517000000E-01  4.688422617E-01
   p   1
  1.517000000E-01  1.000000000E+00
   d   1
  5.500000000E-01  1.000000000E+00
 
   4
   s   9
  6.665000000E+03  6.920001793E-04
  1.000000000E+03  5.329001381E-03
  2.280000000E+02  2.707700701E-02
  6.471000000E+01  1.017180264E-01
  2.106000000E+01  2.747400712E-01
  7.495000000E+00  4.485641162E-01
  2.797000000E+00  2.850740738E-01
  5.215000000E-01  1.520400394E-02
  1.596000000E-01 -3.191000827E-03
   s   9
  6.665000000E+03 -1.460000642E-04
  1.000000000E+03 -1.154000508E-03
  2.280000000E+02 -5.725002519E-03
  6.471000000E+01 -2.331201026E-02
  2.106000000E+01 -6.395502813E-02
  7.495000000E+00 -1.499810660E-01
  2.797000000E+00 -1.272620560E-01
  5.215000000E-01  5.445292395E-01
  1.596000000E-01  5.804962554E-01
   s   1
  1.596000000E-01  1.000000000E+00
   p   4
  9.439000000E+00  3.810902127E-02
  2.002000000E+00  2.094801169E-01
  5.456000000E-01  5.085572839E-01
  1.517000000E-01  4.688422617E-01
   p   1
  1.517000000E-01  1.000000000E+00
   d   1
  5.500000000E-01  1.000000000E+00
 
   5
   s   9
  6.665000000E+03  6.920001793E-04
  1.000000000E+03  5.329001381E-03
  2.280000000E+02  2.707700701E-02
  6.471000000E+01  1.017180264E-01
  2.106000000E+01  2.747400712E-01
  7.495000000E+00  4.485641162E-01
  2.797000000E+00  2.850740738E-01
  5.215000000E-01  1.520400394E-02
  1.596000000E-01 -3.191000827E-03
   s   9
  6.665000000E+03 -1.460000642E-04
  1.000000000E+03 -1.154000508E-03
  2.280000000E+02 -5.725002519E-03
  6.471000000E+01 -2.331201026E-02
  2.106000000E+01 -6.395502813E-02
  7.495000000E+00 -1.499810660E-01
  2.797000000E+00 -1.272620560E-01
  5.215000000E-01  5.445292395E-01
  1.596000000E-01  5.804962554E-01
   s   1
  1.596000000E-01  1.000000000E+00
   p   4
  9.439000000E+00  3.810902127E-02
  2.002000000E+00  2.094801169E-01
  5.456000000E-01  5.085572839E-01
  1.517000000E-01  4.688422617E-01
   p   1
  1.517000000E-01  1.000000000E+00
   d   1
  5.500000000E-01  1.000000000E+00
 
   6
   s   4
  1.301000000E+01  1.968498999E-02
  1.962000000E+00  1.379769298E-01
  4.446000000E-01  4.781477569E-01
  1.220000000E-01  5.012397451E-01
   s   1
  1.220000000E-01  1.000000000E+00
   p   1
  7.270000000E-01  1.000000000E+00
 
   7
   s   4
  1.301000000E+01  1.968498999E-02
  1.962000000E+00  1.379769298E-01
  4.446000000E-01  4.781477569E-01
  1.220000000E-01  5.012397451E-01
   s   1
  1.220000000E-01  1.000000000E+00
   p   1
  7.270000000E-01  1.000000000E+00
 
   8
   s   4
  1.301000000E+01  1.968498999E-02
  1.962000000E+00  1.379769298E-01
  4.446000000E-01  4.781477569E-01
  1.220000000E-01  5.012397451E-01
   s   1
  1.220000000E-01  1.000000000E+00
   p   1
  7.270000000E-01  1.000000000E+00
 
   9
   s   4
  1.301000000E+01  1.968498999E-02
  1.962000000E+00  1.379769298E-01
  4.446000000E-01  4.781477569E-01
  1.220000000E-01  5.012397451E-01
   s   1
  1.220000000E-01  1.000000000E+00
   p   1
  7.270000000E-01  1.000000000E+00
 
[MO]
Sym=     1a  
Ene=   -91.9790
Spin= Alpha
Occup=    2.00000
   1         1.00002357
   2         0.00018571
   3         0.00038808
   4        -0.00084292
   5        -0.00001139
   6        -0.00006531
   7         0.00000537
   8        -0.00000343
   9        -0.00001965
  10         0.00000162
  11         0.00005157
  12         0.00029569
  13        -0.00002432
  14         0.00003344
  15         0.00000294
  16         0.00000514
  17         0.00000976
  18        -0.00000334
  19        -0.00001856
  20        -0.00007778
  21         0.00032755
  22         0.00001739
  23        -0.00001515
  24         0.00000014
  25        -0.00015929
  26         0.00014184
  27        -0.00000148
  28         0.00000605
  29        -0.00000330
  30         0.00000011
  31         0.00002013
  32         0.00003800
  33        -0.00001527
  34        -0.00005823
  35         0.00004764
  36        -0.00000633
  37        -0.00002104
  38         0.00000188
  39         0.00004456
  40        -0.00001200
  41        -0.00000160
  42        -0.00000640
  43        -0.00000130
  44         0.00000016
  45         0.00001299
  46        -0.00000054
  47        -0.00001527
  48        -0.00005823
  49         0.00004764
  50        -0.00000117
  51        -0.00002195
  52         0.00000166
  53        -0.00004594
  54         0.00000410
  55         0.00000225
  56        -0.00000644
  57        -0.00000060
  58         0.00000038
  59         0.00001028
  60        -0.00000800
  61        -0.00001856
  62        -0.00007778
  63         0.00032755
  64        -0.00002147
  65        -0.00000824
  66         0.00000179
  67         0.00019769
  68         0.00007833
  69        -0.00001663
  70         0.00000555
  71         0.00000410
  72         0.00000240
  73        -0.00000895
  74        -0.00004200
  75        -0.00003608
  76         0.00006176
  77         0.00001034
  78        -0.00002098
  79         0.00000095
  80        -0.00001069
  81         0.00000029
  82        -0.00000547
  83         0.00000117
  84         0.00000022
  85        -0.00001069
  86         0.00000029
  87         0.00000553
  88        -0.00000079
  89        -0.00000025
  90        -0.00003608
  91         0.00006176
  92        -0.00001682
  93        -0.00001614
  94         0.00000210
Sym=     2a  
Ene=   -11.2680
Spin= Alpha
Occup=    2.00000
   1         0.00000003
   2         0.00000014
   3         0.00000039
   4        -0.00000222
   5        -0.00007446
   6         0.00001329
   7         0.00000316
   8        -0.00037509
   9         0.00006693
  10         0.00001590
  11        -0.00036762
  12         0.00006608
  13         0.00001556
  14        -0.00000136
  15         0.00001769
  16         0.00000547
  17        -0.00006964
  18        -0.00019143
  19        -0.70827688
  20        -0.00569529
  21         0.00723398
  22         0.00008616
  23        -0.00049717
  24         0.00003133
  25        -0.00130668
  26        -0.00022792
  27         0.00008886
  28         0.00028290
  29         0.00006444
  30         0.00003109
  31        -0.00028843
  32        -0.00028968
  33        -0.01994220
  34         0.00031589
  35        -0.00197084
  36         0.00003598
  37         0.00006779
  38        -0.00000691
  39        -0.00080674
  40        -0.00127810
  41         0.00013744
  42        -0.00023892
  43         0.00000728
  44        -0.00003249
  45        -0.00022130
  46        -0.00024860
  47         0.01991503
  48        -0.00031507
  49         0.00196793
  50         0.00001099
  51        -0.00007612
  52         0.00000492
  53        -0.00032608
  54         0.00147808
  55        -0.00008927
  56         0.00023512
  57         0.00004624
  58         0.00004906
  59         0.00001076
  60        -0.00032985
  61         0.70732430
  62         0.00568777
  63        -0.00722429
  64         0.00024897
  65         0.00043705
  66        -0.00004549
  67        -0.00114933
  68         0.00066479
  69         0.00001530
  70        -0.00028681
  71         0.00000035
  72        -0.00001099
  73         0.00003374
  74        -0.00040981
  75         0.00074896
  76        -0.00083567
  77        -0.00040098
  78         0.00007899
  79         0.00001647
  80        -0.00039393
  81        -0.00002098
  82         0.00008610
  83        -0.00014210
  84         0.00000555
  85         0.00039362
  86         0.00002064
  87         0.00012882
  88         0.00010377
  89        -0.00001466
  90        -0.00074788
  91         0.00083428
  92        -0.00040304
  93         0.00006398
  94         0.00001767
Sym=     3a  
Ene=   -11.2680
Spin= Alpha
Occup=    2.00000
   1        -0.00004079
   2        -0.00021495
   3        -0.00058129
   4         0.00329804
   5        -0.00001180
   6        -0.00006739
   7         0.00000555
   8        -0.00005193
   9        -0.00029627
  10         0.00002438
  11        -0.00017013
  12        -0.00097401
  13         0.00008013
  14         0.00023942
  15         0.00002165
  16         0.00003482
  17         0.00004878
  18        -0.00001638
  19         0.70728930
  20         0.00558932
  21        -0.00719575
  22        -0.00002954
  23         0.00037406
  24        -0.00002552
  25         0.00119931
  26        -0.00018008
  27        -0.00005330
  28        -0.00033898
  29        -0.00007518
  30        -0.00003211
  31         0.00037678
  32         0.00029567
  33         0.02018068
  34        -0.00060952
  35         0.00215721
  36         0.00007470
  37        -0.00003438
  38        -0.00000164
  39         0.00016337
  40         0.00111255
  41        -0.00008983
  42         0.00014217
  43         0.00000133
  44         0.00002911
  45         0.00017904
  46         0.00003466
  47         0.02020751
  48        -0.00060994
  49         0.00215986
  50        -0.00008182
  51        -0.00000664
  52         0.00000501
  53         0.00022242
  54         0.00110396
  55        -0.00009245
  56         0.00014140
  57         0.00001755
  58         0.00003421
  59         0.00011556
  60        -0.00014043
  61         0.70824194
  62         0.00559698
  63        -0.00720548
  64         0.00015465
  65         0.00034194
  66        -0.00003336
  67        -0.00118960
  68         0.00024551
  69         0.00004796
  70        -0.00034416
  71        -0.00000411
  72        -0.00001009
  73         0.00009756
  74        -0.00047296
  75        -0.00080327
  76         0.00103057
  77         0.00040992
  78        -0.00002455
  79        -0.00002091
  80         0.00023185
  81         0.00025370
  82        -0.00009761
  83         0.00008877
  84        -0.00000104
  85         0.00023238
  86         0.00025373
  87         0.00012194
  88         0.00004988
  89        -0.00001037
  90        -0.00080428
  91         0.00103170
  92        -0.00039410
  93         0.00011848
  94         0.00001322
Sym=     4a  
Ene=   -11.2450
Spin= Alpha
Occup=    2.00000
   1         0.00002429
   2         0.00018157
   3         0.00039593
   4        -0.00040731
   5        -0.00000350
   6        -0.00002007
   7         0.00000165
   8        -0.00001223
   9        -0.00007013
  10         0.00000577
  11         0.00001627
  12         0.00009329
  13        -0.00000768
  14         0.00009193
  15         0.00000726
  16         0.00001677
  17         0.00005531
  18        -0.00001953
  19         0.02080996
  20         0.00075561
  21        -0.00239018
  22        -0.00005247
  23        -0.00005464
  24         0.00000687
  25         0.00082696
  26         0.00084906
  27        -0.00010744
  28        -0.00020183
  29        -0.00002935
  30        -0.00002511
  31         0.00006957
  32         0.00008206
  33        -0.70774521
  34        -0.00590531
  35         0.00628548
  36        -0.00002457
  37         0.00000111
  38         0.00000126
  39         0.00038955
  40         0.00081788
  41        -0.00008087
  42         0.00018560
  43         0.00000098
  44         0.00004325
  45         0.00028422
  46         0.00001718
  47        -0.70771934
  48        -0.00590507
  49         0.00628512
  50         0.00002347
  51        -0.00000743
  52        -0.00000072
  53        -0.00008947
  54         0.00090304
  55        -0.00006070
  56         0.00018426
  57         0.00002048
  58         0.00004931
  59         0.00020757
  60        -0.00019364
  61         0.02080922
  62         0.00075560
  63        -0.00239010
  64         0.00003083
  65        -0.00006946
  66         0.00000334
  67        -0.00048991
  68         0.00108330
  69        -0.00005152
  70        -0.00020302
  71        -0.00001159
  72        -0.00001963
  73        -0.00000019
  74        -0.00010982
  75        -0.00018277
  76        -0.00019455
  77         0.00011942
  78        -0.00001365
  79        -0.00000562
  80         0.00059083
  81        -0.00105999
  82        -0.00018180
  83         0.00028203
  84        -0.00001042
  85         0.00059079
  86        -0.00105996
  87         0.00026626
  88         0.00020230
  89        -0.00002942
  90        -0.00018276
  91        -0.00019454
  92        -0.00011684
  93         0.00002838
  94         0.00000441
Sym=     5a  
Ene=   -11.2440
Spin= Alpha
Occup=    2.00000
   1         0.00000000
   2         0.00000000
   3         0.00000001
   4        -0.00000001
   5        -0.00002170
   6         0.00000386
   7         0.00000092
   8        -0.00012677
   9         0.00002255
  10         0.00000539
  11         0.00013797
  12        -0.00002454
  13        -0.00000587
  14        -0.00000007
  15         0.00000100
  16         0.00000032
  17        -0.00000394
  18        -0.00001085
  19        -0.02036616
  20        -0.00046816
  21         0.00216341
  22         0.00003759
  23         0.00000337
  24        -0.00000232
  25        -0.00088767
  26        -0.00062985
  27         0.00009485
  28         0.00031638
  29         0.00005072
  30         0.00003637
  31        -0.00016643
  32        -0.00014966
  33         0.70805337
  34         0.00660063
  35        -0.00986198
  36        -0.00002704
  37         0.00006070
  38        -0.00000288
  39         0.00137026
  40        -0.00166304
  41         0.00004482
  42        -0.00067729
  43        -0.00002822
  44        -0.00008026
  45        -0.00019935
  46        -0.00035958
  47        -0.70807922
  48        -0.00660085
  49         0.00986221
  50        -0.00004594
  51        -0.00004771
  52         0.00000605
  53         0.00185042
  54         0.00109010
  55        -0.00018167
  56         0.00067257
  57         0.00009815
  58         0.00010197
  59        -0.00007542
  60        -0.00039615
  61         0.02036693
  62         0.00046819
  63        -0.00216349
  64         0.00003419
  65        -0.00001614
  66        -0.00000071
  67        -0.00062117
  68         0.00089831
  69        -0.00003085
  70        -0.00031872
  71        -0.00001604
  72        -0.00002564
  73         0.00003016
  74        -0.00022514
  75         0.00035121
  76         0.00004708
  77        -0.00015485
  78         0.00002158
  79         0.00000701
  80        -0.00098222
  81         0.00080497
  82         0.00019888
  83        -0.00051873
  84         0.00002666
  85         0.00098224
  86        -0.00080500
  87         0.00036242
  88         0.00041889
  89        -0.00005046
  90        -0.00035122
  91        -0.00004709
  92        -0.00015283
  93         0.00003315
  94         0.00000605
Sym=     6a  
Ene=    -8.9822
Spin= Alpha
Occup=    2.00000
   1         0.00043274
   2         1.00323483
   3         0.00839738
   4        -0.01505235
   5        -0.00113579
   6        -0.00651224
   7         0.00053561
   8        -0.00050727
   9        -0.00290854
  10         0.00023921
  11         0.00118693
  12         0.00680549
  13        -0.00055972
  14         0.00029578
  15         0.00002560
  16         0.00004669
  17         0.00009983
  18        -0.00003444
  19        -0.00039331
  20        -0.00107144
  21         0.00482638
  22         0.00016851
  23        -0.00015936
  24         0.00000224
  25        -0.00215445
  26         0.00232690
  27        -0.00004966
  28         0.00032459
  29        -0.00002111
  30         0.00002148
  31         0.00017841
  32         0.00058368
  33        -0.00025917
  34        -0.00097752
  35         0.00117577
  36        -0.00004955
  37        -0.00027935
  38         0.00002302
  39         0.00055846
  40         0.00021837
  41        -0.00004677
  42        -0.00015762
  43        -0.00001766
  44        -0.00001303
  45         0.00007668
  46        -0.00002468
  47        -0.00025918
  48        -0.00097752
  49         0.00117577
  50        -0.00004794
  51        -0.00027964
  52         0.00002296
  53        -0.00045096
  54         0.00039795
  55        -0.00000391
  56        -0.00015767
  57        -0.00001697
  58        -0.00001281
  59         0.00007399
  60        -0.00003208
  61        -0.00039331
  62        -0.00107144
  63         0.00482639
  64        -0.00021229
  65        -0.00009161
  66         0.00001840
  67         0.00281201
  68         0.00144337
  69        -0.00026044
  70         0.00031746
  71         0.00008456
  72         0.00005426
  73        -0.00023684
  74        -0.00055840
  75        -0.00037184
  76         0.00088669
  77         0.00000261
  78        -0.00025954
  79         0.00001870
  80        -0.00017622
  81         0.00017304
  82        -0.00004810
  83        -0.00000931
  84         0.00000334
  85        -0.00017622
  86         0.00017304
  87         0.00004206
  88        -0.00002535
  89        -0.00000049
  90        -0.00037184
  91         0.00088669
  92        -0.00009026
  93        -0.00024302
  94         0.00002264
Sym=     7a  
Ene=    -6.6638
Spin= Alpha
Occup=    2.00000
   1        -0.00000000
   2         0.00000000
   3        -0.00000000
   4         0.00000000
   5         0.98383750
   6        -0.17502273
   7        -0.04174896
   8         0.00138399
   9        -0.00024621
  10        -0.00005872
  11        -0.00109871
  12         0.00019546
  13         0.00004662
  14        -0.00000477
  15         0.00007070
  16         0.00002193
  17        -0.00027783
  18        -0.00076414
  19        -0.00003548
  20         0.00054850
  21        -0.00190402
  22        -0.00015651
  23         0.00029703
  24        -0.00001290
  25         0.00119352
  26        -0.00011296
  27        -0.00005786
  28         0.00010284
  29         0.00001916
  30         0.00001525
  31        -0.00004219
  32        -0.00009431
  33        -0.00008206
  34        -0.00025603
  35         0.00259512
  36         0.00003192
  37         0.00005159
  38        -0.00000551
  39        -0.00082795
  40         0.00127408
  41        -0.00004664
  42        -0.00007679
  43        -0.00000447
  44        -0.00001323
  45        -0.00005006
  46        -0.00000264
  47         0.00008206
  48         0.00025603
  49        -0.00259512
  50         0.00001254
  51        -0.00005950
  52         0.00000363
  53        -0.00120917
  54        -0.00091167
  55         0.00013315
  56         0.00007657
  57         0.00000780
  58         0.00001427
  59         0.00003698
  60        -0.00003332
  61         0.00003548
  62        -0.00054850
  63         0.00190402
  64        -0.00024758
  65        -0.00022514
  66         0.00003005
  67         0.00115990
  68        -0.00030571
  69        -0.00004199
  70        -0.00010405
  71        -0.00000113
  72        -0.00000966
  73        -0.00002865
  74        -0.00010054
  75         0.00002694
  76        -0.00022881
  77        -0.00009481
  78         0.00006592
  79         0.00000046
  80         0.00004676
  81         0.00038025
  82         0.00004035
  83        -0.00003482
  84         0.00000029
  85        -0.00004676
  86        -0.00038025
  87         0.00004971
  88         0.00001880
  89        -0.00000412
  90        -0.00002694
  91         0.00022882
  92        -0.00011141
  93        -0.00002924
  94         0.00000829
Sym=     8a  
Ene=    -6.6628
Spin= Alpha
Occup=    2.00000
   1        -0.00000971
   2         0.00580007
   3        -0.00262793
   4         0.00134349
   5         0.17124859
   6         0.98188495
   7        -0.08075418
   8        -0.00009340
   9        -0.00053549
  10         0.00004405
  11         0.00004575
  12         0.00026232
  13        -0.00002158
  14         0.00032045
  15         0.00001769
  16         0.00008320
  17         0.00045849
  18        -0.00016468
  19         0.00007497
  20        -0.00042626
  21         0.00093457
  22         0.00031526
  23        -0.00026419
  24         0.00000172
  25        -0.00077489
  26        -0.00013105
  27         0.00005241
  28        -0.00003317
  29        -0.00002668
  30        -0.00000006
  31         0.00019224
  32         0.00017597
  33        -0.00001199
  34        -0.00006773
  35        -0.00055849
  36        -0.00002358
  37        -0.00011811
  38         0.00000988
  39        -0.00001544
  40        -0.00028958
  41         0.00002188
  42        -0.00000107
  43        -0.00000466
  44         0.00000621
  45         0.00008543
  46        -0.00000222
  47        -0.00001199
  48        -0.00006773
  49        -0.00055849
  50        -0.00001779
  51        -0.00011913
  52         0.00000964
  53        -0.00008346
  54        -0.00027748
  55         0.00002477
  56        -0.00000138
  57         0.00000006
  58         0.00000767
  59         0.00006691
  60        -0.00005317
  61         0.00007497
  62        -0.00042626
  63         0.00093456
  64        -0.00038567
  65        -0.00013949
  66         0.00003148
  67         0.00068392
  68        -0.00039057
  69        -0.00000949
  70        -0.00003588
  71         0.00001354
  72         0.00001241
  73         0.00003419
  74        -0.00025873
  75        -0.00011405
  76         0.00029310
  77         0.00008935
  78        -0.00000944
  79        -0.00000426
  80         0.00001993
  81        -0.00010717
  82        -0.00001564
  83         0.00000820
  84         0.00000027
  85         0.00001993
  86        -0.00010717
  87         0.00001747
  88         0.00000231
  89        -0.00000113
  90        -0.00011405
  91         0.00029310
  92        -0.00008717
  93         0.00002196
  94         0.00000323
Sym=     9a  
Ene=    -6.6609
Spin= Alpha
Occup=    2.00000
   1         0.00000000
   2        -0.00000001
   3         0.00000001
   4        -0.00000002
   5         0.05511407
   6         0.07228325
   7         0.99576322
   8        -0.00011823
   9        -0.00015508
  10        -0.00213650
  11         0.00005664
  12         0.00007430
  13         0.00102351
  14         0.00004372
  15        -0.00005213
  16        -0.00030506
  17         0.00001931
  18        -0.00002087
  19         0.00000000
  20        -0.00000000
  21        -0.00000002
  22         0.00000394
  23         0.00000517
  24         0.00007119
  25        -0.00000584
  26        -0.00000767
  27        -0.00010577
  28        -0.00000347
  29         0.00001761
  30         0.00001392
  31        -0.00000004
  32         0.00000206
  33        -0.00000000
  34        -0.00000001
  35         0.00000008
  36         0.00000175
  37         0.00000229
  38         0.00003156
  39         0.00000079
  40         0.00000110
  41         0.00001479
  42        -0.00000269
  43         0.00001170
  44         0.00001227
  45        -0.00000025
  46         0.00000154
  47         0.00000001
  48         0.00000002
  49        -0.00000008
  50         0.00000175
  51         0.00000229
  52         0.00003155
  53         0.00000077
  54         0.00000104
  55         0.00001480
  56        -0.00000131
  57        -0.00000692
  58         0.00001565
  59        -0.00000152
  60         0.00000037
  61        -0.00000000
  62        -0.00000000
  63         0.00000004
  64         0.00000394
  65         0.00000517
  66         0.00007119
  67        -0.00000582
  68        -0.00000769
  69        -0.00010577
  70        -0.00000129
  71        -0.00001194
  72         0.00001928
  73        -0.00000206
  74         0.00000021
  75        -0.00000000
  76        -0.00000000
  77         0.00000035
  78         0.00000046
  79         0.00000636
  80        -0.00000000
  81         0.00000001
  82        -0.00000009
  83        -0.00000012
  84        -0.00000160
  85        -0.00000000
  86        -0.00000002
  87        -0.00000009
  88        -0.00000012
  89        -0.00000160
  90         0.00000000
  91         0.00000001
  92         0.00000035
  93         0.00000046
  94         0.00000636
Sym=    10a  
Ene=    -1.1649
Spin= Alpha
Occup=    2.00000
   1         0.00028782
   2        -0.00331646
   3         0.42362563
   4        -0.07300398
   5         0.00124236
   6         0.00712326
   7        -0.00058586
   8        -0.02525311
   9        -0.14479285
  10         0.01190893
  11         0.00972792
  12         0.05577668
  13        -0.00458762
  14        -0.02164710
  15        -0.00193496
  16        -0.00321709
  17        -0.00515676
  18         0.00173867
  19        -0.01163507
  20         0.38106038
  21        -0.10502349
  22        -0.11462987
  23        -0.01492440
  24         0.00742870
  25         0.03463317
  26         0.00519391
  27        -0.00229420
  28        -0.01198225
  29        -0.00089180
  30        -0.00172592
  31        -0.00357174
  32        -0.00094990
  33        -0.01252022
  34         0.38330291
  35        -0.12389373
  36        -0.04181089
  37         0.11134651
  38        -0.00576663
  39         0.01241894
  40        -0.04205912
  41         0.00236529
  42        -0.01028623
  43        -0.00122585
  44        -0.00130690
  45         0.00151201
  46         0.00201838
  47        -0.01252023
  48         0.38330299
  49        -0.12389378
  50         0.07696492
  51         0.09021595
  52        -0.01081354
  53        -0.02590083
  54        -0.03524193
  55         0.00399331
  56        -0.01031516
  57        -0.00079559
  58        -0.00117409
  59        -0.00017902
  60        -0.00263273
  61        -0.01163508
  62         0.38106052
  63        -0.10502354
  64         0.10268162
  65        -0.05358364
  66        -0.00179181
  67        -0.03079156
  68         0.01683283
  69         0.00048201
  70        -0.01195826
  71        -0.00124673
  72        -0.00183655
  73        -0.00217593
  74         0.00288896
  75         0.07811202
  76        -0.03836060
  77        -0.00776877
  78        -0.00041598
  79         0.00046025
  80         0.07537814
  81        -0.03821889
  82        -0.00291794
  83         0.00723110
  84        -0.00036339
  85         0.07537820
  86        -0.03821892
  87         0.00518873
  88         0.00578892
  89        -0.00070757
  90         0.07811210
  91        -0.03836064
  92         0.00716047
  93        -0.00307188
  94        -0.00017330
Sym=    11a  
Ene=    -0.9809
Spin= Alpha
Occup=    2.00000
   1         0.00000018
   2        -0.00000200
   3         0.00055700
   4        -0.00005204
   5         0.00614654
   6        -0.00108960
   7        -0.00026114
   8        -0.17714936
   9         0.03144888
  10         0.00752308
  11         0.05653226
  12        -0.01003141
  13        -0.00240109
  14         0.00022802
  15        -0.00357422
  16        -0.00110938
  17         0.01404615
  18         0.03861502
  19         0.01583130
  20        -0.50610702
  21         0.09592501
  22         0.03005937
  23         0.08383634
  24        -0.00774936
  25         0.02166124
  26        -0.02476185
  27         0.00059815
  28         0.01004712
  29         0.00108756
  30         0.00210184
  31         0.00642268
  32        -0.00644787
  33         0.01096792
  34        -0.32706999
  35         0.10483399
  36        -0.15922734
  37        -0.09320109
  38         0.01557977
  39         0.04342661
  40         0.02838465
  41        -0.00446396
  42         0.00379388
  43         0.00101162
  44         0.00219327
  45         0.01058751
  46        -0.01683676
  47        -0.01094191
  48         0.32634264
  49        -0.10467711
  50        -0.11826854
  51         0.14261441
  52        -0.00380898
  53         0.03123306
  54        -0.04170662
  55         0.00130016
  56        -0.00392170
  57         0.00111682
  58        -0.00153435
  59        -0.01896476
  60        -0.00613548
  61        -0.01583654
  62         0.50624319
  63        -0.09592824
  64         0.00000301
  65        -0.08883109
  66         0.00645184
  67         0.02873069
  68         0.01568640
  69        -0.00273022
  70        -0.01009877
  71        -0.00040904
  72        -0.00189195
  73        -0.00908540
  74        -0.00089485
  75        -0.19676888
  76         0.07815693
  77         0.01513406
  78         0.00226793
  79        -0.00100240
  80        -0.12727433
  81         0.05598648
  82         0.00174034
  83        -0.01141330
  84         0.00073224
  85         0.12699343
  86        -0.05587121
  87         0.00547797
  88         0.01011179
  89        -0.00103738
  90         0.19685796
  91        -0.07818754
  92         0.01346579
  93        -0.00735103
  94        -0.00021162
Sym=    12a  
Ene=    -0.9809
Spin= Alpha
Occup=    2.00000
   1        -0.00020932
   2         0.00230688
   3        -0.64386068
   4         0.06015868
   5        -0.00075062
   6        -0.00433523
   7         0.00035623
   8         0.01270622
   9         0.07375899
  10        -0.00605736
  11        -0.00495794
  12        -0.02871622
  13         0.00235883
  14         0.01493263
  15         0.00161398
  16         0.00130154
  17        -0.00627706
  18         0.00241391
  19         0.00303656
  20        -0.07917681
  21         0.00193814
  22        -0.00185700
  23        -0.20356406
  24         0.01488046
  25         0.01922855
  26         0.06049320
  27        -0.00545597
  28         0.00356174
  29        -0.00152858
  30        -0.00050264
  31         0.00417463
  32         0.02248563
  33        -0.01502003
  34         0.41998498
  35        -0.09055638
  36        -0.09958323
  37        -0.00979454
  38         0.00622659
  39         0.02126513
  40         0.01953693
  41        -0.00259654
  42        -0.00894038
  43        -0.00148435
  44        -0.00003193
  45         0.01369759
  46        -0.00187644
  47        -0.01503900
  48         0.42055041
  49        -0.09073769
  50         0.09007127
  51        -0.04332413
  52        -0.00184420
  53        -0.01332145
  54         0.02562757
  55        -0.00112192
  56        -0.00898200
  57        -0.00096588
  58         0.00012547
  59         0.01163522
  60        -0.00746916
  61         0.00300916
  62        -0.07830099
  63         0.00177219
  64        -0.06712447
  65        -0.19210705
  66         0.01766311
  67         0.00244446
  68         0.06351515
  69        -0.00474673
  70         0.00327996
  71         0.00239029
  72         0.00070962
  73        -0.01124399
  74        -0.01987958
  75        -0.05161782
  76         0.01774364
  77         0.00478123
  78        -0.00360788
  79        -0.00000276
  80         0.16226161
  81        -0.06658093
  82        -0.00755982
  83         0.01138107
  84        -0.00040773
  85         0.16248176
  86        -0.06667777
  87         0.01096475
  88         0.00810477
  89        -0.00119540
  90        -0.05127732
  91         0.01760840
  92        -0.00569079
  93        -0.00175350
  94         0.00044232
Sym=    13a  
Ene=    -0.7648
Spin= Alpha
Occup=    2.00000
   1         0.00000135
   2        -0.00100379
   3        -0.42600361
   4        -0.03471766
   5         0.00016514
   6         0.00094680
   7        -0.00007787
   8        -0.01038018
   9        -0.05951488
  10         0.00489457
  11         0.00222590
  12         0.01276208
  13        -0.00104952
  14        -0.00367735
  15        -0.00056295
  16         0.00021371
  17         0.00728966
  18        -0.00267340
  19        -0.00785543
  20         0.37261930
  21        -0.04770867
  22         0.18563747
  23        -0.12589750
  24        -0.00113809
  25        -0.06035093
  26         0.04392692
  27         0.00015235
  28        -0.00222005
  29        -0.00091886
  30        -0.00063534
  31         0.00161166
  32         0.00842391
  33         0.00236365
  34        -0.14524962
  35         0.02726457
  36         0.26759368
  37         0.14179132
  38        -0.02510997
  39        -0.06162658
  40        -0.04548385
  41         0.00671455
  42         0.00289674
  43        -0.00007415
  44        -0.00085278
  45        -0.00824156
  46         0.01109141
  47         0.00236367
  48        -0.14525030
  49         0.02726453
  50        -0.20351715
  51         0.22560185
  52        -0.00511182
  53         0.04252925
  54        -0.06401331
  55         0.00229258
  56         0.00280779
  57         0.00124597
  58        -0.00044391
  59        -0.01342916
  60        -0.00317659
  61        -0.00785544
  62         0.37261963
  63        -0.04770862
  64        -0.21705822
  65        -0.05425762
  66         0.01595542
  67         0.07158005
  68         0.02045631
  69        -0.00544776
  70        -0.00231943
  71         0.00055590
  72        -0.00017840
  73        -0.00418425
  74        -0.00751715
  75         0.33501973
  76        -0.12396679
  77        -0.01971337
  78        -0.00411182
  79         0.00138975
  80        -0.09498206
  81         0.03151011
  82         0.00528641
  83        -0.00366073
  84        -0.00002691
  85        -0.09498266
  86         0.03151030
  87        -0.00620675
  88        -0.00161614
  89         0.00046092
  90         0.33502026
  91        -0.12396697
  92         0.01713582
  93        -0.01066724
  94        -0.00017404
Sym=    14a  
Ene=    -0.7453
Spin= Alpha
Occup=    2.00000
   1        -0.00000000
   2        -0.00000000
   3         0.00000032
   4         0.00000003
   5         0.00671467
   6        -0.00119453
   7        -0.00028495
   8        -0.31034242
   9         0.05520951
  10         0.01316944
  11         0.09502822
  12        -0.01690538
  13        -0.00403243
  14         0.00026485
  15        -0.00392779
  16        -0.00121820
  17         0.01543668
  18         0.04245654
  19         0.00571924
  20        -0.21402302
  21        -0.01870192
  22        -0.13402381
  23        -0.26065910
  24         0.02634043
  25         0.06558339
  26         0.05638557
  27        -0.00772339
  28         0.00357377
  29        -0.00002261
  30        -0.00039820
  31        -0.00494854
  32         0.00878305
  33        -0.00968542
  34         0.35558630
  35         0.00293700
  36         0.15104120
  37        -0.09493458
  38        -0.00147002
  39        -0.07023310
  40         0.05996810
  41        -0.00046482
  42        -0.00242035
  43         0.00033861
  44        -0.00084432
  45        -0.00848209
  46        -0.00142380
  47         0.00968541
  48        -0.35558587
  49        -0.00293702
  50         0.17406923
  51         0.03709715
  52        -0.01232945
  53        -0.08629448
  54        -0.03212174
  55         0.00710960
  56         0.00237078
  57         0.00039564
  58         0.00107244
  59         0.00559663
  60        -0.00651226
  61        -0.00571923
  62         0.21402227
  63         0.01870199
  64        -0.03777135
  65         0.29122111
  66        -0.01905468
  67         0.04255982
  68        -0.07562408
  69         0.00313546
  70        -0.00349711
  71        -0.00111506
  72         0.00004579
  73         0.00941981
  74         0.00351469
  75        -0.24836871
  76         0.08430121
  77         0.01322861
  78        -0.00114062
  79        -0.00064951
  80         0.31555406
  81        -0.10178517
  82        -0.00586744
  83         0.01705353
  84        -0.00091332
  85        -0.31555381
  86         0.10178508
  87        -0.01128381
  88        -0.01400234
  89         0.00164114
  90         0.24836829
  91        -0.08430106
  92         0.01281829
  93        -0.00349309
  94        -0.00045597
Sym=    15a  
Ene=    -0.6915
Spin= Alpha
Occup=    2.00000
   1        -0.00077638
   2        -0.00404615
   3         0.18967830
   4         0.05587837
   5        -0.00060368
   6        -0.00346133
   7         0.00028470
   8         0.03587350
   9         0.20568668
  10        -0.01691814
  11        -0.00838908
  12        -0.04810012
  13         0.00395631
  14         0.00977474
  15         0.00019990
  16         0.00364062
  17         0.02583011
  18        -0.00932955
  19        -0.00225034
  20        -0.02153790
  21         0.01756480
  22         0.28288540
  23         0.10268681
  24        -0.02311340
  25        -0.05897125
  26        -0.02954740
  27         0.00540938
  28         0.00407561
  29         0.00124346
  30         0.00012624
  31        -0.00904752
  32        -0.00478834
  33        -0.00433622
  34         0.04854293
  35         0.02074602
  36         0.06684638
  37        -0.37557538
  38         0.02356394
  39        -0.02003574
  40         0.09660501
  41        -0.00590406
  42         0.00199724
  43        -0.00031710
  44         0.00046042
  45         0.00520001
  46         0.00305297
  47        -0.00433622
  48         0.04854300
  49         0.02074595
  50        -0.18988739
  51        -0.32990249
  52         0.03446600
  53         0.05151317
  54         0.08387656
  55        -0.00894166
  56         0.00194275
  57         0.00048906
  58         0.00071136
  59         0.00203281
  60        -0.00565776
  61        -0.00225034
  62        -0.02153812
  63         0.01756480
  64        -0.23111889
  65         0.19412726
  66        -0.00130273
  67         0.04542560
  68        -0.04811945
  69         0.00097945
  70         0.00416489
  71        -0.00008124
  72        -0.00028411
  73        -0.00384281
  74         0.00952669
  75         0.24173524
  76        -0.08757161
  77        -0.01367927
  78         0.00058443
  79         0.00071483
  80         0.35041762
  81        -0.11917714
  82        -0.00817430
  83         0.01593087
  84        -0.00070411
  85         0.35041796
  86        -0.11917726
  87         0.01307205
  88         0.01215119
  89        -0.00160570
  90         0.24173528
  91        -0.08757163
  92         0.01305368
  93        -0.00417133
  94        -0.00041974
Sym=    16a  
Ene=    -0.5726
Spin= Alpha
Occup=    2.00000
   1        -0.00000000
   2         0.00000000
   3         0.00000019
   4         0.00000004
   5         0.00047716
   6        -0.00008489
   7        -0.00002028
   8        -0.11921989
   9         0.02120936
  10         0.00506317
  11         0.03329388
  12        -0.00592298
  13        -0.00141357
  14         0.00019071
  15        -0.00282714
  16        -0.00087714
  17         0.01110930
  18         0.03055469
  19        -0.00120108
  20        -0.11914908
  21        -0.02390011
  22         0.40198320
  23         0.13574176
  24        -0.03210443
  25        -0.05829674
  26        -0.01720200
  27         0.00447586
  28         0.00109529
  29         0.00013106
  30         0.00065274
  31         0.00429726
  32        -0.00359705
  33        -0.00315424
  34        -0.02903336
  35         0.05292157
  36        -0.02776969
  37        -0.37450172
  38         0.02872305
  39         0.02409714
  40         0.11065114
  41        -0.00936648
  42        -0.00123789
  43         0.00141841
  44         0.00148234
  45         0.00400955
  46        -0.02408765
  47         0.00315424
  48         0.02903330
  49        -0.05292157
  50         0.10060085
  51         0.36154454
  52        -0.03182124
  53        -0.01478813
  54        -0.11230708
  55         0.00897346
  56         0.00098855
  57         0.00227926
  58        -0.00033568
  59        -0.01853970
  60        -0.01587543
  61         0.00120109
  62         0.11914905
  63         0.02390014
  64         0.33186590
  65        -0.26629254
  66         0.00096915
  67        -0.04896841
  68         0.03628437
  69         0.00007570
  70        -0.00111777
  71         0.00020290
  72        -0.00054962
  73        -0.00560853
  74        -0.00000943
  75         0.34188221
  76        -0.10588399
  77        -0.01398077
  78         0.00013858
  79         0.00076392
  80         0.32447765
  81        -0.08208314
  82        -0.00978020
  83         0.00779925
  84        -0.00002485
  85        -0.32447672
  86         0.08208289
  87        -0.01183020
  88        -0.00395474
  89         0.00094190
  90        -0.34188294
  91         0.10588421
  92        -0.01318622
  93         0.00469442
  94         0.00038920
Sym=    17a  
Ene=    -0.5476
Spin= Alpha
Occup=    2.00000
   1         0.00058546
   2         0.00257336
   3        -0.13727357
   4        -0.05586688
   5         0.00011650
   6         0.00066798
   7        -0.00005490
   8        -0.00933462
   9        -0.05351900
  10         0.00439651
  11         0.00072780
  12         0.00417242
  13        -0.00034244
  14        -0.00830660
  15        -0.00144217
  16         0.00103913
  17         0.02244055
  18        -0.00821083
  19        -0.00154550
  20         0.01460691
  21         0.00963855
  22         0.22202252
  23         0.22298702
  24        -0.02847610
  25        -0.03604532
  26        -0.03034915
  27         0.00419804
  28        -0.00142909
  29        -0.00158336
  30         0.00115108
  31         0.02120137
  32         0.00375151
  33         0.00186234
  34         0.03294110
  35         0.01333077
  36        -0.54655302
  37         0.02743243
  38         0.02827070
  39         0.11670484
  40         0.00253061
  41        -0.00664530
  42        -0.00172084
  43        -0.00110533
  44         0.00188808
  45         0.02454929
  46        -0.00572086
  47         0.00186235
  48         0.03294136
  49         0.01333062
  50         0.52293874
  51        -0.16282919
  52        -0.01713510
  53        -0.10882465
  54         0.04265190
  55         0.00292860
  56        -0.00175630
  57        -0.00057974
  58         0.00205129
  59         0.02248396
  60        -0.01140110
  61        -0.00154549
  62         0.01460722
  63         0.00963863
  64        -0.13321846
  65         0.28618222
  66        -0.01341311
  67         0.02360812
  68        -0.04096119
  69         0.00166848
  70        -0.00155566
  71         0.00029118
  72         0.00173363
  73         0.01383496
  74        -0.01650845
  75         0.27484166
  76        -0.07367527
  77        -0.00909690
  78         0.00110001
  79         0.00042377
  80        -0.24227482
  81         0.06199607
  82        -0.00420333
  83        -0.01173975
  84         0.00108508
  85        -0.24227564
  86         0.06199626
  87        -0.00002146
  88        -0.01248373
  89         0.00090735
  90         0.27484050
  91        -0.07367495
  92         0.00892149
  93        -0.00210546
  94        -0.00034117
Sym=    18a  
Ene=    -0.5209
Spin= Alpha
Occup=    2.00000
   1         0.00000000
   2         0.00000001
   3         0.00000002
   4        -0.00000004
   5         0.00510715
   6        -0.00090858
   7        -0.00021704
   8        -0.59674619
   9         0.10616423
  10         0.02537326
  11         0.12828116
  12        -0.02282142
  13        -0.00544881
  14         0.00042776
  15        -0.00633635
  16        -0.00196875
  17         0.02489911
  18         0.06848084
  19        -0.00039808
  20         0.04305890
  21        -0.04769078
  22         0.23375320
  23        -0.34341340
  24         0.01202258
  25        -0.01653637
  26         0.05329807
  27        -0.00295544
  28         0.00409158
  29        -0.00213289
  30         0.00120005
  31         0.02274060
  32         0.01739340
  33         0.00148091
  34        -0.05825646
  35         0.01763597
  36         0.03455797
  37         0.22326237
  38        -0.01808583
  39        -0.01899629
  40        -0.02500054
  41         0.00286352
  42        -0.00152177
  43        -0.00295807
  44        -0.00008738
  45         0.01960794
  46         0.02364483
  47        -0.00148091
  48         0.05825642
  49        -0.01763600
  50        -0.04305488
  51        -0.22174466
  52         0.01852064
  53        -0.00939487
  54         0.03005079
  55        -0.00166513
  56         0.00186066
  57        -0.00207334
  58        -0.00146990
  59         0.00016380
  60         0.03073557
  61         0.00039809
  62        -0.04305890
  63         0.04769074
  64         0.33586883
  65         0.24208361
  66        -0.03613240
  67        -0.03357296
  68        -0.04438392
  69         0.00507900
  70        -0.00380888
  71        -0.00205727
  72        -0.00250062
  73        -0.00627488
  74         0.02789318
  75         0.24935290
  76        -0.06376846
  77        -0.00816502
  78        -0.00660975
  79         0.00093263
  80        -0.25335089
  81         0.06036563
  82         0.00486151
  83        -0.00592653
  84         0.00016195
  85         0.25335098
  86        -0.06036564
  87         0.00657400
  88         0.00389231
  89        -0.00064564
  90        -0.24935300
  91         0.06376846
  92        -0.00543737
  93         0.00902973
  94        -0.00035376
Sym=    19a  
Ene=    -0.5166
Spin= Alpha
Occup=    2.00000
   1         0.00000002
   2         0.00000012
   3        -0.00000075
   4        -0.00000105
   5         0.00018258
   6         0.00023868
   7         0.00328852
   8        -0.02810260
   9        -0.03677021
  10        -0.50660105
  11         0.00274723
  12         0.00358450
  13         0.04939664
  14        -0.00543138
  15         0.00647525
  16         0.03789797
  17        -0.00239750
  18         0.00260031
  19        -0.00000000
  20         0.00000319
  21        -0.00000647
  22        -0.01842023
  23        -0.02421862
  24        -0.33317994
  25         0.00096536
  26         0.00127194
  27         0.01744958
  28        -0.00187227
  29         0.02008521
  30        -0.00054502
  31         0.00115138
  32         0.00143817
  33         0.00000003
  34        -0.00000404
  35         0.00000572
  36        -0.01765035
  37        -0.02313008
  38        -0.31890589
  39         0.00156437
  40         0.00205511
  41         0.02831445
  42         0.00180469
  43         0.00458813
  44        -0.01773996
  45         0.00154610
  46        -0.00065495
  47        -0.00000002
  48         0.00000106
  49        -0.00000655
  50        -0.01766669
  51        -0.02317745
  52        -0.31890160
  53         0.00156615
  54         0.00205687
  55         0.02831423
  56         0.00289650
  57        -0.01019299
  58        -0.01505841
  59         0.00053232
  60        -0.00158354
  61         0.00000005
  62        -0.00000033
  63         0.00000753
  64        -0.01840181
  65        -0.02417057
  66        -0.33318455
  67         0.00096287
  68         0.00126205
  69         0.01745045
  70         0.00101001
  71        -0.01905867
  72         0.00655532
  73        -0.00153053
  74        -0.00102219
  75         0.00002485
  76        -0.00000663
  77        -0.00045472
  78        -0.00059585
  79        -0.00819922
  80        -0.00002337
  81         0.00000616
  82        -0.00042905
  83        -0.00056396
  84        -0.00775955
  85         0.00003082
  86        -0.00000814
  87        -0.00042876
  88        -0.00056265
  89        -0.00775967
  90        -0.00003212
  91         0.00000849
  92        -0.00045468
  93        -0.00059424
  94        -0.00819935
Sym=    20a  
Ene=    -0.4703
Spin= Alpha
Occup=    2.00000
   1         0.00252545
   2         0.01298901
   3        -0.23267600
   4        -0.16286461
   5         0.00079626
   6         0.00456548
   7        -0.00037549
   8        -0.13483379
   9        -0.77309393
  10         0.06358699
  11         0.01103584
  12         0.06327595
  13        -0.00520434
  14        -0.03964688
  15        -0.00387520
  16        -0.00481594
  17         0.00211640
  18        -0.00101888
  19         0.00093601
  20         0.07737484
  21         0.01750894
  22        -0.11683999
  23         0.29116755
  24        -0.01466608
  25         0.01382246
  26        -0.05684540
  27         0.00336133
  28        -0.00577672
  29         0.00105408
  30         0.00081708
  31         0.00273236
  32        -0.02414587
  33         0.00048345
  34        -0.10042246
  35        -0.00904324
  36         0.04172505
  37        -0.22125547
  38         0.01375407
  39        -0.00813837
  40         0.02343528
  41        -0.00125050
  42        -0.00034395
  43         0.00091519
  44        -0.00081994
  45        -0.01306067
  46        -0.00310987
  47         0.00048345
  48        -0.10042252
  49        -0.00904316
  50        -0.11406821
  51        -0.19353949
  52         0.02037391
  53         0.01557714
  54         0.01921626
  55        -0.00225863
  56        -0.00025743
  57        -0.00036868
  58        -0.00121779
  59        -0.00801471
  60         0.01076848
  61         0.00093601
  62         0.07737476
  63         0.01750885
  64         0.20831535
  65         0.23332259
  66        -0.02846892
  67        -0.03222243
  68        -0.04865399
  69         0.00531633
  70        -0.00552196
  71        -0.00272381
  72        -0.00035470
  73         0.01757976
  74         0.01668991
  75        -0.05430217
  76         0.00441062
  77         0.00229052
  78         0.00670029
  79        -0.00061313
  80         0.18939169
  81        -0.04088311
  82        -0.00170292
  83         0.00475056
  84        -0.00025060
  85         0.18939177
  86        -0.04088311
  87         0.00320764
  88         0.00387699
  89        -0.00045882
  90        -0.05430201
  91         0.00441055
  92         0.00011418
  93         0.00708745
  94        -0.00052085
Sym=    21a  
Ene=    -0.3436
Spin= Alpha
Occup=    2.00000
   1        -0.00000003
   2        -0.00000021
   3        -0.00000077
   4         0.00000078
   5         0.00009867
   6         0.00012941
   7         0.00178237
   8        -0.04076112
   9        -0.05346174
  10        -0.73649341
  11        -0.00281643
  12        -0.00369460
  13        -0.05089144
  14        -0.00111453
  15         0.00132909
  16         0.00777768
  17        -0.00049267
  18         0.00053223
  19         0.00000001
  20        -0.00000086
  21        -0.00000046
  22         0.00297064
  23         0.00389644
  24         0.05367457
  25        -0.00016101
  26        -0.00021239
  27        -0.00291491
  28         0.00404400
  29        -0.00070376
  30        -0.03135913
  31         0.00224214
  32        -0.00180578
  33        -0.00000010
  34        -0.00000514
  35         0.00000105
  36         0.02124623
  37         0.02785144
  38         0.38368947
  39         0.00138597
  40         0.00182054
  41         0.02507826
  42         0.00019751
  43        -0.01304556
  44         0.00839577
  45        -0.00133173
  46        -0.00048359
  47         0.00000006
  48         0.00000824
  49         0.00000070
  50         0.02124491
  51         0.02786337
  52         0.38368812
  53         0.00138603
  54         0.00182165
  55         0.02507814
  56        -0.00187393
  57         0.01504414
  58         0.00329986
  59         0.00059085
  60         0.00128317
  61         0.00000006
  62         0.00000063
  63        -0.00000096
  64         0.00297043
  65         0.00389518
  66         0.05367373
  67        -0.00016096
  68        -0.00021043
  69        -0.00291514
  70         0.00471024
  71        -0.00973329
  72        -0.02972090
  73         0.00162516
  74        -0.00237381
  75        -0.00000200
  76         0.00000019
  77         0.00007386
  78         0.00009689
  79         0.00133409
  80         0.00000422
  81        -0.00000029
  82         0.00054271
  83         0.00071178
  84         0.00980189
  85        -0.00000579
  86         0.00000049
  87         0.00054251
  88         0.00071147
  89         0.00980191
  90         0.00000027
  91        -0.00000003
  92         0.00007385
  93         0.00009676
  94         0.00133407
Sym=    22a  
Ene=    -0.3252
Spin= Alpha
Occup=    2.00000
   1         0.00000004
   2         0.00000023
   3        -0.00000139
   4        -0.00000352
   5         0.00000005
   6         0.00000004
   7        -0.00000000
   8         0.00000062
   9         0.00000018
  10        -0.00000077
  11        -0.00000029
  12         0.00000078
  13        -0.00000012
  14         0.00429563
  15        -0.05830363
  16         0.01057666
  17        -0.00398900
  18        -0.00366748
  19        -0.00000007
  20        -0.00000202
  21         0.00000119
  22        -0.02802174
  23        -0.03674320
  24        -0.50622885
  25        -0.00335032
  26        -0.00439260
  27        -0.06051403
  28        -0.00225015
  29         0.01432730
  30         0.00682263
  31         0.00029519
  32         0.00142834
  33         0.00000006
  34         0.00000546
  35         0.00000232
  36        -0.01763379
  37        -0.02311355
  38        -0.31840597
  39        -0.00134992
  40        -0.00177031
  41        -0.02438418
  42         0.00467468
  43        -0.02429143
  44        -0.01834391
  45        -0.00000728
  46        -0.00280070
  47         0.00000017
  48         0.00000676
  49        -0.00000133
  50         0.01763281
  51         0.02311937
  52         0.31840625
  53         0.00134978
  54         0.00176798
  55         0.02438440
  56        -0.00165110
  57        -0.01675021
  58         0.02578906
  59        -0.00280179
  60         0.00021877
  61        -0.00000029
  62        -0.00000770
  63         0.00000247
  64         0.02801660
  65         0.03676097
  66         0.50622790
  67         0.00335122
  68         0.00439154
  69         0.06051404
  70         0.00036995
  71         0.01120433
  72        -0.01145407
  73         0.00145256
  74         0.00017715
  75         0.00000203
  76         0.00000000
  77        -0.00071187
  78        -0.00093335
  79        -0.01285893
  80        -0.00000274
  81         0.00000020
  82        -0.00045659
  83        -0.00059879
  84        -0.00824606
  85        -0.00000474
  86        -0.00000017
  87         0.00045645
  88         0.00059859
  89         0.00824610
  90         0.00000552
  91         0.00000033
  92         0.00071191
  93         0.00093368
  94         0.01285890
Sym=    23a  
Ene=     0.1237
Spin= Alpha
Occup=    0.00000
   1         0.00000014
   2         0.00000097
   3         0.00000190
   4        -0.00000672
   5         0.00011113
   6         0.00014550
   7         0.00200484
   8        -0.02055506
   9        -0.02694401
  10        -0.37116356
  11        -0.01548433
  12        -0.02029256
  13        -0.27957096
  14         0.01008252
  15        -0.01202273
  16        -0.07035976
  17         0.00445546
  18        -0.00481645
  19        -0.00000077
  20         0.00000489
  21         0.00003534
  22         0.02566229
  23         0.03366059
  24         0.46363367
  25         0.01850472
  26         0.02427330
  27         0.33442000
  28        -0.00125837
  29         0.00671865
  30         0.00479815
  31         0.00002251
  32         0.00075957
  33         0.00000055
  34         0.00000984
  35        -0.00001031
  36        -0.01514919
  37        -0.01985470
  38        -0.27348468
  39        -0.01092206
  40        -0.01434338
  41        -0.19725668
  42        -0.00518456
  43         0.02811189
  44         0.01945283
  45         0.00013748
  46         0.00314202
  47        -0.00000051
  48        -0.00000653
  49         0.00001594
  50        -0.01514751
  51        -0.01985160
  52        -0.27348492
  53        -0.01091596
  54        -0.01429915
  55        -0.19726018
  56        -0.00164244
  57        -0.01997343
  58         0.02817568
  59        -0.00315343
  60         0.00011725
  61         0.00000106
  62        -0.00000476
  63        -0.00003942
  64         0.02565992
  65         0.03366206
  66         0.46363363
  67         0.01850507
  68         0.02429265
  69         0.33441855
  70        -0.00041497
  71        -0.00472429
  72         0.00687391
  73        -0.00076165
  74         0.00004027
  75        -0.00000068
  76        -0.00000519
  77         0.00094286
  78         0.00123616
  79         0.01702589
  80        -0.00000363
  81        -0.00001562
  82        -0.00055670
  83        -0.00072983
  84        -0.01005348
  85         0.00000323
  86         0.00001059
  87        -0.00055669
  88        -0.00072998
  89        -0.01005347
  90         0.00000105
  91         0.00000246
  92         0.00094274
  93         0.00123593
  94         0.01702592
Sym=    24a  
Ene=     0.1914
Spin= Alpha
Occup=    0.00000
   1         0.00176916
   2         0.01152111
   3         0.00165518
   4        -0.13107636
   5        -0.00088731
   6        -0.00508891
   7         0.00041857
   8        -0.00628408
   9        -0.03600944
  10         0.00296068
  11         0.03552252
  12         0.20372877
  13        -0.01675816
  14         0.00985326
  15         0.00200880
  16        -0.00219611
  17        -0.03696770
  18         0.01350078
  19         0.01713508
  20        -0.10928773
  21        -0.52817871
  22        -0.14828262
  23        -0.02575839
  24         0.01008183
  25        -0.37880431
  26        -0.12102992
  27         0.02976011
  28         0.00155182
  29        -0.00015228
  30         0.00097718
  31         0.00879347
  32        -0.00250822
  33         0.02648157
  34        -0.06300471
  35        -0.85009938
  36        -0.07670178
  37         0.17627744
  38        -0.00855607
  39        -0.15800243
  40         0.25774398
  41        -0.00997237
  42         0.00493754
  43         0.00090937
  44         0.00078594
  45        -0.00149149
  46        -0.00478747
  47         0.02648163
  48        -0.06300297
  49        -0.85010291
  50         0.13172190
  51         0.13920146
  52        -0.01739470
  53         0.23568830
  54         0.18770784
  55        -0.02666749
  56         0.00499678
  57         0.00003278
  58         0.00051338
  59         0.00195189
  60         0.00468232
  61         0.01713568
  62        -0.10929238
  63        -0.52820118
  64         0.13064120
  65        -0.07538433
  66        -0.00175931
  67         0.31506243
  68        -0.24447480
  69         0.00030903
  70         0.00154452
  71        -0.00004115
  72         0.00101083
  73         0.00835695
  74        -0.00370756
  75         0.06935359
  76         0.96050017
  77        -0.00840338
  78        -0.00142932
  79         0.00056908
  80         0.04363745
  81         1.00618877
  82        -0.00423729
  83         0.01237342
  84        -0.00066382
  85         0.04363549
  86         1.00618529
  87         0.00816840
  88         0.01016655
  89        -0.00119027
  90         0.06935309
  91         0.96051867
  92         0.00741436
  93        -0.00424338
  94        -0.00010233
Sym=    25a  
Ene=     0.1918
Spin= Alpha
Occup=    0.00000
   1         0.00000002
   2         0.00000011
   3         0.00000023
   4        -0.00000106
   5        -0.02092716
   6         0.00372286
   7         0.00088813
   8         0.33744809
   9        -0.06003258
  10        -0.01432568
  11         0.84670309
  12        -0.15062588
  13        -0.03593842
  14         0.00080006
  15        -0.01185933
  16        -0.00368139
  17         0.04661693
  18         0.12821422
  19         0.02975117
  20        -0.21403402
  21        -1.09907286
  22         0.01159191
  23        -0.25924921
  24         0.01819409
  25        -0.26363624
  26        -0.24392305
  27         0.03232037
  28         0.00533480
  29         0.00146057
  30        -0.00122910
  31        -0.02285955
  32         0.00435730
  33         0.00240207
  34         0.06905624
  35        -0.14577753
  36         0.09752773
  37         0.07390991
  38        -0.01078498
  39         0.19377766
  40         0.01145635
  41        -0.01158442
  42        -0.00026039
  43        -0.00121076
  44         0.00050054
  45         0.01252514
  46         0.00676087
  47        -0.00240152
  48        -0.06905748
  49         0.14575973
  50         0.06665672
  51        -0.10311547
  52         0.00380812
  53         0.17824492
  54        -0.07763555
  55        -0.00422319
  56         0.00038523
  57        -0.00064012
  58        -0.00107321
  59        -0.00525685
  60         0.01322989
  61        -0.02975078
  62         0.21403144
  63         1.09906112
  64         0.09860543
  65         0.23964518
  66        -0.02285498
  67        -0.16523909
  68         0.32021670
  69        -0.01410040
  70        -0.00537881
  71        -0.00080851
  72         0.00143169
  73         0.02029864
  74        -0.01140124
  75        -0.02252518
  76         0.88353545
  77        -0.01628034
  78        -0.00179731
  79         0.00103232
  80        -0.08923955
  81        -0.10901131
  82         0.00247697
  83         0.00333079
  84        -0.00037966
  85         0.08924035
  86         0.10903218
  87         0.00120124
  88        -0.00398491
  89         0.00022338
  90         0.02252684
  91        -0.88351483
  92        -0.01469228
  93         0.00730727
  94         0.00028272
Sym=    26a  
Ene=     0.2198
Spin= Alpha
Occup=    0.00000
   1        -0.00000003
   2         0.00000011
   3         0.00000801
   4         0.00002278
   5        -0.00000068
   6        -0.00000010
   7         0.00000005
   8         0.00000109
   9        -0.00000559
  10         0.00000033
  11         0.00001343
  12        -0.00001613
  13         0.00000034
  14         0.00790007
  15        -0.10723943
  16         0.01945352
  17        -0.00733744
  18        -0.00674208
  19         0.00000210
  20         0.00000349
  21        -0.00004511
  22        -0.01454955
  23        -0.01908151
  24        -0.26270829
  25        -0.02127160
  26        -0.02790120
  27        -0.38414176
  28         0.00555426
  29        -0.00634420
  30        -0.03897236
  31         0.00248456
  32        -0.00264382
  33         0.00000244
  34         0.00000357
  35        -0.00006719
  36         0.02668337
  37         0.03500537
  38         0.48207971
  39         0.03214161
  40         0.04216388
  41         0.58057982
  42        -0.00046836
  43         0.01670083
  44        -0.00904986
  45         0.00158140
  46         0.00071470
  47         0.00000188
  48        -0.00000576
  49        -0.00003819
  50        -0.02668204
  51        -0.03500340
  52        -0.48207996
  53        -0.03210828
  54        -0.04215071
  55        -0.58058266
  56        -0.00214264
  57         0.01869638
  58         0.00262820
  59         0.00084175
  60         0.00151216
  61        -0.00000041
  62         0.00001505
  63         0.00004869
  64         0.01453310
  65         0.01907393
  66         0.26270984
  67         0.02121177
  68         0.02789798
  69         0.38414542
  70        -0.00560200
  71         0.00695546
  72         0.03886113
  73        -0.00244282
  74         0.00268174
  75         0.00000000
  76         0.00003505
  77        -0.00061935
  78        -0.00081170
  79        -0.01117914
  80         0.00000207
  81         0.00004357
  82         0.00110796
  83         0.00145425
  84         0.02002296
  85         0.00000933
  86         0.00004064
  87        -0.00110827
  88        -0.00145345
  89        -0.02002299
  90         0.00000194
  91        -0.00009213
  92         0.00061746
  93         0.00081212
  94         0.01117923
Sym=    27a  
Ene=     0.2309
Spin= Alpha
Occup=    0.00000
   1        -0.00000001
   2        -0.00000004
   3         0.00000192
   4         0.00000027
   5        -0.00553768
   6         0.00098519
   7         0.00023504
   8         0.15689474
   9        -0.02791406
  10        -0.00665730
  11         0.27449066
  12        -0.04883252
  13        -0.01164877
  14         0.00042027
  15        -0.00622330
  16        -0.00192946
  17         0.02444812
  18         0.06724199
  19        -0.01013894
  20        -0.04818731
  21         0.52447054
  22         0.25103592
  23        -0.09012602
  24        -0.00735945
  25         0.46635619
  26        -0.00374420
  27        -0.02555581
  28        -0.00580267
  29        -0.00107124
  30        -0.00098191
  31         0.00126197
  32         0.00602735
  33        -0.01626487
  34         0.10861174
  35         0.65689414
  36         0.10206741
  37        -0.14282755
  38         0.00472885
  39         0.20328734
  40        -0.68348172
  41         0.03837658
  42        -0.00342906
  43        -0.00009859
  44         0.00008256
  45         0.00295233
  46        -0.00541826
  47         0.01626456
  48        -0.10860958
  49        -0.65688128
  50         0.14424220
  51         0.09900634
  52        -0.01518029
  53         0.42227413
  54         0.57218337
  55        -0.06492784
  56         0.00338142
  57         0.00080557
  58         0.00013559
  59        -0.00572889
  60        -0.00221899
  61         0.01013940
  62         0.04818248
  63        -0.52448796
  64         0.26641977
  65        -0.00193146
  66        -0.01460154
  67         0.43956936
  68        -0.15742613
  69        -0.01289954
  70         0.00587469
  71         0.00000518
  72         0.00065107
  73         0.00292761
  74         0.00549566
  75         0.00143412
  76        -1.00077737
  77         0.01502395
  78         0.00189426
  79        -0.00096944
  80        -0.04489336
  81        -1.32951343
  82         0.00921762
  83        -0.01354231
  84         0.00047324
  85         0.04489279
  86         1.32948565
  87         0.01324411
  88         0.00954614
  89        -0.00142662
  90        -0.00143243
  91         1.00080926
  92         0.01347913
  93        -0.00696518
  94        -0.00024016
Sym=    28a  
Ene=     0.2316
Spin= Alpha
Occup=    0.00000
   1         0.00089077
   2         0.00145056
   3        -0.15187563
   4         0.00247271
   5        -0.00057812
   6        -0.00331426
   7         0.00027260
   8         0.03595107
   9         0.20611986
  10        -0.01695285
  11         0.01256503
  12         0.07202026
  13        -0.00592393
  14        -0.04196313
  15        -0.00434212
  16        -0.00431024
  17         0.01069988
  18        -0.00415291
  19        -0.01730117
  20         0.18804999
  21         0.66585191
  22         0.07464990
  23         0.08889001
  24        -0.01057945
  25         0.65732199
  26         0.12002764
  27        -0.04509112
  28        -0.00363930
  29        -0.00139964
  30        -0.00053026
  31         0.00636979
  32         0.00953098
  33         0.01380382
  34        -0.08762177
  35        -0.56894147
  36        -0.06751179
  37         0.14206661
  38        -0.00658832
  39        -0.34077242
  40         0.52988565
  41        -0.01962233
  42         0.00371469
  43        -0.00025254
  44        -0.00023375
  45        -0.00206176
  46         0.00992267
  47         0.01380422
  48        -0.08762445
  49        -0.56895777
  50         0.11151631
  51         0.11022266
  52        -0.01416304
  53         0.49954376
  54         0.38041337
  55        -0.05525573
  56         0.00361401
  57         0.00124277
  58         0.00022962
  59        -0.00793874
  60        -0.00624092
  61        -0.01730094
  62         0.18805129
  63         0.66583973
  64        -0.04007708
  65         0.10930026
  66        -0.00572191
  67        -0.57714175
  68         0.33963412
  69         0.00727828
  70        -0.00376975
  71         0.00054002
  72         0.00006976
  73        -0.00125389
  74        -0.01143742
  75        -0.06504791
  76        -1.23934260
  77         0.01290833
  78         0.00762995
  79        -0.00126824
  80         0.01788522
  81         1.16800645
  82        -0.00979285
  83         0.01267050
  84        -0.00037819
  85         0.01788638
  86         1.16803997
  87         0.01349047
  88         0.00852879
  89        -0.00136553
  90        -0.06504785
  91        -1.23931831
  92        -0.00954974
  93         0.01162506
  94        -0.00031562
Sym=    29a  
Ene=     0.2612
Spin= Alpha
Occup=    0.00000
   1         0.00000000
   2         0.00000002
   3        -0.00000004
   4        -0.00000053
   5         0.00260184
   6        -0.00046288
   7        -0.00011062
   8         0.24241414
   9        -0.04312543
  10        -0.01029105
  11         0.48077596
  12        -0.08552923
  13        -0.02040429
  14         0.00031809
  15        -0.00471740
  16        -0.00146225
  17         0.01853290
  18         0.05097244
  19         0.00530210
  20         0.04714492
  21        -0.45447624
  22         0.20743663
  23        -0.14575915
  24        -0.00090214
  25         1.06797326
  26         0.02502559
  27        -0.06093089
  28         0.00438879
  29         0.00171714
  30         0.00112972
  31        -0.00362022
  32        -0.01496117
  33        -0.00233084
  34        -0.22890738
  35         0.25650040
  36         0.06254802
  37         0.11500683
  38        -0.01181067
  39        -0.29810047
  40         1.29419527
  41        -0.07743813
  42        -0.01319454
  43        -0.00321671
  44        -0.00051399
  45         0.02298797
  46         0.00919205
  47         0.00233082
  48         0.22890745
  49        -0.25649992
  50         0.01987368
  51        -0.12967056
  52         0.00830050
  53        -0.71801038
  54        -1.11342901
  55         0.12058193
  56         0.01338857
  57         0.00033535
  58        -0.00037794
  59        -0.01166261
  60         0.02195731
  61        -0.00530212
  62        -0.04714499
  63         0.45447639
  64         0.24426531
  65         0.06540257
  66        -0.01826113
  67         0.99523129
  68        -0.39206446
  69        -0.02659916
  70        -0.00456863
  71         0.00094852
  72        -0.00030291
  73        -0.00685238
  74        -0.01384234
  75        -0.08301619
  76        -1.24730784
  77         0.00585625
  78        -0.00754111
  79         0.00022338
  80        -0.00726703
  81         1.45531096
  82         0.00063723
  83         0.01121425
  84        -0.00084924
  85         0.00726714
  86        -1.45531190
  87        -0.00319515
  88        -0.01075923
  89         0.00095745
  90         0.08301621
  91         1.24730855
  92         0.00805510
  93         0.00506634
  94        -0.00081328
Sym=    30a  
Ene=     0.2825
Spin= Alpha
Occup=    0.00000
   1         0.02872454
   2         0.18172926
   3        -0.11122958
   4        -2.25735492
   5        -0.00292514
   6        -0.01677172
   7         0.00137933
   8         0.02437201
   9         0.13974074
  10        -0.01149128
  11         0.24689686
  12         1.41562202
  13        -0.11642493
  14        -0.07444978
  15        -0.00838870
  16        -0.00543891
  17         0.04267942
  18        -0.01598536
  19        -0.01984330
  20         0.07407452
  21         0.49580620
  22        -0.20627183
  23         0.25508264
  24        -0.00710391
  25        -0.78464878
  26         0.92454069
  27        -0.02369001
  28        -0.01275554
  29        -0.00097167
  30        -0.00250301
  31        -0.00943244
  32         0.00355298
  33        -0.01158486
  34         0.01309259
  35         0.58901569
  36         0.11708028
  37         0.02206505
  38        -0.00807357
  39         0.36568066
  40        -0.21255785
  41        -0.00478931
  42        -0.00742480
  43         0.00138409
  44        -0.00181536
  45        -0.02158055
  46        -0.01244806
  47        -0.01158484
  48         0.01309255
  49         0.58901506
  50        -0.10256866
  51         0.06113897
  52         0.00123064
  53        -0.41558422
  54        -0.07357507
  55         0.02832320
  56        -0.00720149
  57        -0.00192567
  58        -0.00284244
  59        -0.00857568
  60         0.02331999
  61        -0.01984332
  62         0.07407463
  63         0.49580729
  64         0.28015649
  65         0.16854828
  66        -0.02774160
  67         1.05021350
  68         0.59812227
  69        -0.10154720
  70        -0.01275800
  71        -0.00093810
  72        -0.00249139
  73        -0.00956347
  74         0.00319287
  75        -0.11170504
  76         0.61166285
  77        -0.00671241
  78         0.01175887
  79        -0.00048224
  80         0.12214848
  81        -0.44895533
  82         0.00187352
  83        -0.01250141
  84         0.00080422
  85         0.12214852
  86        -0.44895415
  87        -0.00599020
  88        -0.01110248
  89         0.00113758
  90        -0.11170487
  91         0.61166202
  92         0.01028665
  93         0.00873479
  94        -0.00120331
Sym=    31a  
Ene=     0.4083
Spin= Alpha
Occup=    0.00000
   1        -0.01847255
   2        -0.12412629
   3        -0.16093742
   4         1.01228372
   5         0.00425555
   6         0.02439997
   7        -0.00200674
   8         0.02365809
   9         0.13564798
  10        -0.01115458
  11        -0.19886666
  12        -1.14023680
  13         0.09378513
  14        -0.00033576
  15        -0.00425742
  16         0.01367602
  17         0.14737053
  18        -0.05358148
  19         0.05822753
  20        -0.05173282
  21        -2.49270927
  22         0.10198228
  23         0.15203800
  24        -0.01668596
  25         1.37821435
  26         1.00061828
  27        -0.14893155
  28         0.03807375
  29         0.00452941
  30         0.00240012
  31        -0.02674545
  32         0.00860058
  33        -0.03575075
  34         0.08112889
  35         2.01803639
  36        -0.02465607
  37         0.18539240
  38        -0.01208814
  39         0.81767778
  40         1.33823439
  41        -0.14239547
  42        -0.01577532
  43        -0.00139530
  44        -0.00141645
  45         0.00419723
  46        -0.00495992
  47        -0.03575073
  48         0.08112896
  49         2.01803574
  50         0.08589385
  51         0.16572463
  52        -0.01679245
  53        -0.31571590
  54         1.53985877
  55        -0.09435356
  56        -0.01573833
  57        -0.00193998
  58        -0.00158738
  59         0.00633922
  60         0.00093080
  61         0.05822750
  62        -0.05173289
  63        -2.49270905
  64        -0.04440711
  65         0.17808050
  66        -0.01047174
  67        -0.95673829
  68         1.41600018
  69        -0.04987113
  70         0.03808849
  71         0.00430697
  72         0.00233297
  73        -0.02587030
  74         0.01100805
  75        -0.11945446
  76        -0.48113314
  77        -0.01672215
  78         0.00285429
  79         0.00071808
  80         0.04281309
  81         0.51058596
  82         0.02025919
  83         0.00202015
  84        -0.00126830
  85         0.04281296
  86         0.51058654
  87        -0.01835639
  88         0.00888983
  89         0.00037061
  90        -0.11945441
  91        -0.48113339
  92         0.01668136
  93        -0.00308812
  94        -0.00069923
Sym=    32a  
Ene=     0.4399
Spin= Alpha
Occup=    0.00000
   1         0.00000000
   2         0.00000002
   3         0.00000007
   4         0.00000014
   5         0.03417711
   6        -0.00608002
   7        -0.00144977
   8         0.36024151
   9        -0.06408630
  10        -0.01528590
  11        -0.54468517
  12         0.09689788
  13         0.02310486
  14        -0.00057898
  15         0.00860138
  16         0.00266027
  17        -0.03380847
  18        -0.09298737
  19        -0.04533582
  20        -0.10807901
  21         1.32725644
  22         0.00596574
  23         0.13952585
  24        -0.01045837
  25        -1.28273637
  26        -0.67296349
  27         0.11986138
  28        -0.01687777
  29         0.00156025
  30        -0.00378050
  31        -0.03553204
  32        -0.01687176
  33         0.08595122
  34        -0.03624557
  35        -4.17674705
  36         0.16096677
  37        -0.16673605
  38         0.00319345
  39         2.27137944
  40        -1.75178021
  41         0.00137387
  42         0.05319393
  43         0.00622126
  44         0.00694183
  45        -0.00546515
  46        -0.01061961
  47        -0.08595120
  48         0.03624562
  49         4.17674716
  50         0.20768874
  51         0.10115252
  52        -0.01884137
  53         2.72733062
  54         0.86250265
  55        -0.21367096
  56        -0.05333659
  57        -0.00410601
  58        -0.00628586
  59        -0.00284701
  60        -0.01224190
  61         0.04533584
  62         0.10807893
  63        -1.32725606
  64        -0.04159749
  65        -0.13318644
  66         0.01197525
  67        -0.97785786
  68         1.07511914
  69        -0.02393692
  70         0.01655037
  71         0.00329156
  72         0.00528656
  73         0.01646631
  74        -0.03556596
  75        -0.20178943
  76         0.73734723
  77        -0.00759846
  78        -0.02954456
  79         0.00256448
  80        -0.05181635
  81        -1.12037523
  82         0.00670616
  83         0.01821284
  84        -0.00169418
  85         0.05181660
  86         1.12037507
  87         0.00014073
  88        -0.01943102
  89         0.00140227
  90         0.20179000
  91        -0.73734857
  92         0.00285428
  93         0.03038838
  94        -0.00236530
Sym=    33a  
Ene=     0.5425
Spin= Alpha
Occup=    0.00000
   1         0.01593848
   2         0.11749057
   3         0.33318112
   4        -0.33312857
   5        -0.00569437
   6        -0.03264970
   7         0.00268554
   8        -0.03738873
   9        -0.21437623
  10         0.01763317
  11         0.07303241
  12         0.41874301
  13        -0.03444375
  14        -0.08648039
  15        -0.00018813
  16        -0.03733672
  17        -0.28359401
  18         0.10256216
  19         0.01851363
  20        -0.00918120
  21        -0.15142423
  22         0.07068676
  23         0.17025566
  24        -0.01627005
  25        -0.04763826
  26        -0.09378722
  27         0.00944429
  28        -0.08008093
  29        -0.01483949
  30         0.00169777
  31         0.15023749
  32        -0.01644912
  33         0.02764154
  34         0.11983046
  35         0.12177281
  36        -0.15940465
  37        -0.02054787
  38         0.01031116
  39         0.35601559
  40         0.29740731
  41        -0.04129070
  42        -0.06878219
  43         0.00281744
  44        -0.00697815
  45        -0.04788539
  46        -0.09341936
  47         0.02764148
  48         0.11983028
  49         0.12177313
  50         0.14285891
  51        -0.07431953
  52        -0.00250605
  53        -0.23397283
  54         0.40236746
  55        -0.01627250
  56        -0.06756490
  57        -0.01522731
  58        -0.01257733
  59         0.02302179
  60         0.10160085
  61         0.01851365
  62        -0.00918132
  63        -0.15142761
  64        -0.00883192
  65         0.18440176
  66        -0.01290551
  67         0.01304126
  68        -0.10457953
  69         0.00687549
  70        -0.08050709
  71        -0.00851622
  72         0.00365665
  73         0.12539586
  74        -0.08477304
  75         0.65026946
  76        -0.74831015
  77         0.06995255
  78         0.00588844
  79        -0.00429958
  80         0.63153554
  81        -0.50191319
  82         0.03930240
  83        -0.04841109
  84         0.00133792
  85         0.63153485
  86        -0.50191221
  87        -0.05331527
  88        -0.03193431
  89         0.00527092
  90         0.65026869
  91        -0.74830962
  92        -0.06375016
  93         0.02967390
  94         0.00137387
Sym=    34a  
Ene=     0.5870
Spin= Alpha
Occup=    0.00000
   1        -0.00000002
   2        -0.00000020
   3        -0.00000101
   4         0.00000122
   5        -0.03525093
   6         0.00627077
   7         0.00149525
   8        -0.55620012
   9         0.09894439
  10         0.02359170
  11        -0.74741797
  12         0.13296719
  13         0.03170806
  14        -0.00012042
  15         0.00178638
  16         0.00055426
  17        -0.00705467
  18        -0.01940162
  19         0.04183558
  20         0.00979827
  21        -3.08850745
  22         0.05096021
  23         0.21213839
  24        -0.01821349
  25         1.11543259
  26         2.70657903
  27        -0.25819472
  28         0.04203432
  29         0.00537536
  30         0.00492462
  31        -0.01224724
  32        -0.00865772
  33        -0.04730846
  34        -0.06814534
  35         2.01907228
  36         0.29281304
  37         0.09133699
  38        -0.02286545
  39         2.49136971
  40         2.57434706
  41        -0.32481175
  42        -0.02048777
  43        -0.00383033
  44        -0.00391589
  45         0.00086905
  46         0.02466329
  47         0.04730809
  48         0.06814361
  49        -2.01907323
  50         0.24429003
  51        -0.18689324
  52         0.00002832
  53         1.47047273
  54        -3.27914871
  55         0.15670570
  56         0.02076523
  57        -0.00027434
  58         0.00263899
  59         0.01525826
  60         0.01969103
  61        -0.04183590
  62        -0.00979893
  63         3.08851005
  64        -0.02387777
  65        -0.21695345
  66         0.01706060
  67         0.13261525
  68        -2.92860118
  69         0.20535060
  70        -0.04218246
  71        -0.00318612
  72        -0.00424151
  73         0.00365654
  74        -0.01496946
  75        -0.17334160
  76        -0.32451069
  77        -0.02763689
  78         0.02679346
  79        -0.00041342
  80        -0.10920877
  81         0.52701981
  82         0.00353398
  83         0.01040375
  84        -0.00095122
  85         0.10920754
  86        -0.52701850
  87        -0.00019847
  88        -0.01099676
  89         0.00081051
  90         0.17333939
  91         0.32451310
  92        -0.03503814
  93        -0.01564366
  94         0.00307555
Sym=    35a  
Ene=     0.6021
Spin= Alpha
Occup=    0.00000
   1         0.01157774
   2         0.09109487
   3         0.39129755
   4        -0.45304178
   5         0.01206934
   6         0.06920219
   7        -0.00569101
   8         0.08513713
   9         0.48815807
  10        -0.04014300
  11        -0.14922236
  12        -0.85557651
  13         0.07036387
  14         0.15193870
  15         0.01342408
  16         0.02310262
  17         0.04182743
  18        -0.01425107
  19         0.04892987
  20         0.10367102
  21        -0.15069037
  22        -0.06458121
  23        -0.44150412
  24         0.03562046
  25         0.17133493
  26         0.68001750
  27        -0.05884495
  28        -0.05294962
  29        -0.01076276
  30        -0.00857167
  31         0.02140116
  32         0.06108055
  33         0.06718214
  34         0.29353067
  35        -0.19725070
  36         0.37239558
  37         0.33126101
  38        -0.04467256
  39        -0.53846491
  40        -0.40726671
  41         0.05938251
  42        -0.03061520
  43         0.00275204
  44        -0.00577462
  45        -0.05447004
  46        -0.03701008
  47         0.06718249
  48         0.29353128
  49        -0.19726528
  50        -0.23790884
  51         0.43983341
  52        -0.01875893
  53         0.36827994
  54        -0.56859685
  55         0.02089046
  56        -0.02999070
  57        -0.00650301
  58        -0.00864634
  59        -0.01810232
  60         0.06301396
  61         0.04892959
  62         0.10367101
  63        -0.15066950
  64        -0.08867510
  65        -0.43721824
  66         0.03665573
  67         0.06904130
  68         0.69819446
  69        -0.05451745
  70        -0.05371202
  71         0.00054819
  72        -0.00506953
  73        -0.02304165
  74        -0.06115521
  75         0.43511475
  76        -0.38106959
  77         0.05035477
  78         0.02404948
  79        -0.00453332
  80         0.29695309
  81        -0.29572245
  82        -0.01295014
  83        -0.04777752
  84         0.00418504
  85         0.29695366
  86        -0.29572581
  87        -0.00399329
  88        -0.04937093
  89         0.00380593
  90         0.43511595
  91        -0.38106713
  92        -0.03918802
  93         0.03997875
  94        -0.00073416
Sym=    36a  
Ene=     0.6495
Spin= Alpha
Occup=    0.00000
   1        -0.06752579
   2        -0.50592828
   3        -1.49429122
   4         0.83397660
   5        -0.00628238
   6        -0.03602134
   7         0.00296226
   8        -0.09581084
   9        -0.54934934
  10         0.04517782
  11         0.15091649
  12         0.86530692
  13        -0.07116389
  14         0.52981600
  15         0.05373667
  16         0.05801352
  17        -0.09640669
  18         0.03838311
  19        -0.14441314
  20        -0.66903644
  21         0.72003955
  22         0.35179142
  23        -0.30110635
  24         0.00238718
  25        -0.50508195
  26         0.69710153
  27        -0.02264949
  28         0.06906962
  29         0.00652467
  30         0.01339569
  31         0.04134980
  32        -0.02917570
  33        -0.05507815
  34        -0.26197059
  35         0.45772271
  36         0.00823417
  37        -0.10145219
  38         0.00691653
  39         0.19100928
  40         0.21789134
  41        -0.02639656
  42         0.02764353
  43        -0.00036198
  44         0.00364052
  45         0.02140868
  46         0.02541210
  47        -0.05507817
  48        -0.26197068
  49         0.45772115
  50        -0.04206279
  51        -0.09250722
  52         0.00901951
  53        -0.10579633
  54         0.27069426
  55        -0.01377623
  56         0.02727962
  57         0.00503414
  58         0.00531551
  59         0.00019906
  60        -0.03292186
  61        -0.14441326
  62        -0.66903678
  63         0.72004076
  64        -0.43248876
  65        -0.16158418
  66         0.03566631
  67         0.71052677
  68         0.48084618
  69        -0.07423558
  70         0.06922953
  71         0.00414156
  72         0.01266359
  73         0.05071179
  74        -0.00342499
  75         0.05652654
  76        -0.11971160
  77        -0.01714171
  78        -0.00186872
  79         0.00108443
  80         0.09340215
  81         0.01401084
  82        -0.01106118
  83         0.00811620
  84         0.00002368
  85         0.09340198
  86         0.01401083
  87         0.01314132
  88         0.00381049
  89        -0.00100518
  90         0.05652627
  91        -0.11971117
  92         0.01547785
  93        -0.00767166
  94        -0.00029902
Sym=    37a  
Ene=     0.6768
Spin= Alpha
Occup=    0.00000
   1        -0.00000261
   2        -0.00001879
   3        -0.00004916
   4         0.00009022
   5         0.00857310
   6         0.01125193
   7         0.15493470
   8         0.07923515
   9         0.10399149
  10         1.43186886
  11        -0.08518092
  12        -0.11175362
  13        -1.53857384
  14         0.03811863
  15        -0.04544891
  16        -0.26597294
  17         0.01684013
  18        -0.01818795
  19         0.00000019
  20         0.00000566
  21         0.00001333
  22         0.02549431
  23         0.03343015
  24         0.46060317
  25        -0.02364588
  26        -0.03094580
  27        -0.42672213
  28         0.00564683
  29        -0.09878986
  30         0.03081700
  31        -0.00769625
  32        -0.00548560
  33         0.00000160
  34        -0.00000755
  35        -0.00010645
  36         0.02279855
  37         0.02989496
  38         0.41161514
  39        -0.02097417
  40        -0.02767613
  41        -0.38022485
  42        -0.00437535
  43        -0.01984149
  44         0.04966459
  45        -0.00471296
  46         0.00133089
  47        -0.00000807
  48        -0.00002725
  49         0.00013478
  50         0.02278862
  51         0.02985325
  52         0.41161874
  53        -0.02093361
  54        -0.02754483
  55        -0.38023652
  56        -0.00843255
  57         0.03511075
  58         0.03969493
  59        -0.00094921
  60         0.00478813
  61        -0.00000331
  62        -0.00001157
  63        -0.00004739
  64         0.02550370
  65         0.03346111
  66         0.46060069
  67        -0.02369755
  68        -0.03103092
  69        -0.42671357
  70        -0.00921842
  71         0.10306504
  72        -0.00579944
  73         0.00611480
  74         0.00720701
  75         0.00000462
  76         0.00000240
  77        -0.00001296
  78        -0.00001464
  79        -0.00023249
  80         0.00001984
  81        -0.00005170
  82         0.00049030
  83         0.00063971
  84         0.00883685
  85         0.00000281
  86         0.00003030
  87         0.00048994
  88         0.00064148
  89         0.00883676
  90        -0.00001860
  91         0.00000276
  92        -0.00001056
  93        -0.00001946
  94        -0.00023227
Sym=    38a  
Ene=     0.6866
Spin= Alpha
Occup=    0.00000
   1         0.06508774
   2         0.46714824
   3         1.20060906
   4        -2.26594574
   5        -0.02748340
   6        -0.15758445
   7         0.01296719
   8        -0.27310823
   9        -1.56594643
  10         0.12885297
  11         0.38199482
  12         2.19027431
  13        -0.18020662
  14        -0.04751352
  15        -0.00635474
  16        -0.00019467
  17         0.06256548
  18        -0.02304534
  19         0.03788682
  20         0.01789245
  21         0.22084788
  22         0.08587188
  23        -0.25679549
  24         0.01388677
  25        -0.18407645
  26         0.78268887
  27        -0.04662617
  28        -0.14579831
  29        -0.00782872
  30        -0.01316856
  31         0.00442980
  32        -0.08919057
  33         0.06799123
  34         0.43238863
  35        -0.08533711
  36         0.11219578
  37         0.14022994
  38        -0.01639597
  39         0.08154546
  40         0.07891657
  41        -0.01023049
  42        -0.00929103
  43        -0.00829464
  44         0.00138081
  45         0.07144692
  46         0.04719671
  47         0.06799106
  48         0.43238682
  49        -0.08533968
  50        -0.05799982
  51         0.17050887
  52        -0.00915017
  53        -0.04993954
  54         0.10230046
  55        -0.00468739
  56        -0.01009853
  57         0.00367759
  58         0.00509165
  59         0.02441102
  60        -0.08216993
  61         0.03788673
  62         0.01789331
  63         0.22085066
  64        -0.16758217
  65        -0.21170554
  66         0.02466020
  67         0.43779700
  68         0.67205314
  69        -0.07304047
  70        -0.14484188
  71        -0.02198544
  72        -0.01757318
  73         0.06009410
  74         0.06390315
  75         0.17914431
  76        -0.22725119
  77         0.04054754
  78        -0.00189030
  79        -0.00210788
  80        -0.37618308
  81         0.55216316
  82        -0.01595957
  83         0.04146091
  84        -0.00212666
  85        -0.37618173
  86         0.55216037
  87         0.02902599
  88         0.03345795
  89        -0.00403473
  90         0.17914187
  91        -0.22724807
  92        -0.03874634
  93         0.01221601
  94         0.00125718
Sym=    39a  
Ene=     0.6938
Spin= Alpha
Occup=    0.00000
   1         0.00000009
   2         0.00000062
   3         0.00000163
   4        -0.00000317
   5        -0.12305620
   6         0.02189106
   7         0.00521956
   8        -1.16062871
   9         0.20647017
  10         0.04923597
  11         1.78075496
  12        -0.31678671
  13        -0.07552605
  14        -0.00010427
  15         0.00148783
  16         0.00048391
  17        -0.00577899
  18        -0.01588816
  19        -0.10131141
  20        -0.21577818
  21         0.56959842
  22         0.21982349
  23         0.14242837
  24        -0.02250191
  25        -0.46902256
  26        -0.98989808
  27         0.09781020
  28         0.14535358
  29         0.01417010
  30         0.01621034
  31        -0.02000102
  32         0.01357226
  33        -0.07893294
  34        -0.27856032
  35         0.17872745
  36        -0.35760546
  37        -0.33374124
  38         0.04406597
  39        -0.55565924
  40         0.06923960
  41         0.02570645
  42         0.05557289
  43         0.00445495
  44         0.00525441
  45        -0.00948128
  46         0.01972973
  47         0.07893306
  48         0.27856134
  49        -0.17872672
  50        -0.22317015
  51         0.43706850
  52        -0.01932489
  53        -0.54564317
  54         0.12667581
  55         0.02095579
  56        -0.05539812
  57        -0.00705966
  58        -0.00605470
  59         0.01971447
  60         0.00841680
  61         0.10131147
  62         0.21577772
  63        -0.56959839
  64         0.15840933
  65        -0.20971050
  66         0.00651874
  67        -0.10589511
  68         1.09216988
  69        -0.07350928
  70        -0.14529265
  71        -0.01504975
  72        -0.01649988
  73         0.02346178
  74        -0.00405881
  75        -0.66164179
  76         0.68844503
  77        -0.09810385
  78         0.00505383
  79         0.00506422
  80        -0.26703177
  81         0.27999593
  82        -0.03929747
  83         0.02269254
  84         0.00052978
  85         0.26703064
  86        -0.27999384
  87        -0.04460951
  88        -0.00776518
  89         0.00303417
  90         0.66164275
  91        -0.68844622
  92        -0.09390926
  93         0.02910527
  94         0.00308648
Sym=    40a  
Ene=     0.6967
Spin= Alpha
Occup=    0.00000
   1         0.00000044
   2         0.00000306
   3         0.00000775
   4        -0.00002665
   5        -0.00521788
   6        -0.00685130
   7        -0.09434874
   8        -0.04527413
   9        -0.05945426
  10        -0.81867371
  11         0.06166927
  12         0.08106225
  13         1.11604898
  14        -0.05274721
  15         0.06289754
  16         0.36808948
  17        -0.02330536
  18         0.02518900
  19         0.00000649
  20         0.00001275
  21        -0.00003291
  22         0.02005391
  23         0.02629149
  24         0.36243763
  25        -0.01940816
  26        -0.02534128
  27        -0.35074930
  28         0.00888364
  29         0.03489703
  30        -0.09676749
  31         0.00896833
  32        -0.00286381
  33         0.00000582
  34         0.00001469
  35        -0.00005054
  36         0.04019159
  37         0.05268308
  38         0.72526704
  39        -0.04348901
  40        -0.05717461
  41        -0.78723631
  42        -0.00434193
  43        -0.03012852
  44         0.05720880
  45        -0.00582591
  46         0.00099881
  47        -0.00000272
  48         0.00000146
  49         0.00004356
  50         0.04017839
  51         0.05262460
  52         0.72527179
  53        -0.04349608
  54        -0.05717544
  55        -0.78723559
  56        -0.01004478
  57         0.04728026
  58         0.04316642
  59        -0.00052952
  60         0.00586664
  61        -0.00000846
  62        -0.00002687
  63         0.00005859
  64         0.02004774
  65         0.02632828
  66         0.36243468
  67        -0.01941731
  68        -0.02555957
  69        -0.35073223
  70         0.01625708
  71        -0.06487473
  72        -0.07866501
  73         0.00214386
  74        -0.00913767
  75         0.00004290
  76        -0.00004042
  77         0.00130082
  78         0.00169926
  79         0.02338910
  80         0.00001636
  81        -0.00002987
  82         0.00033457
  83         0.00043306
  84         0.00598116
  85        -0.00002250
  86         0.00003416
  87         0.00033521
  88         0.00043404
  89         0.00598109
  90        -0.00003247
  91         0.00003460
  92         0.00129869
  93         0.00169500
  94         0.02338955
Sym=    41a  
Ene=     0.7161
Spin= Alpha
Occup=    0.00000
   1         0.00000009
   2         0.00000065
   3         0.00000167
   4        -0.00000345
   5        -0.10201736
   6         0.01814806
   7         0.00432441
   8        -0.89391183
   9         0.15901880
  10         0.03788633
  11         0.95359527
  12        -0.16963606
  13        -0.04042793
  14         0.00038476
  15        -0.00566277
  16        -0.00177927
  17         0.02226223
  18         0.06122214
  19         0.05803154
  20         0.46186355
  21         0.52395207
  22        -0.07934510
  23        -0.36725646
  24         0.03096234
  25        -0.62955219
  26         0.01304654
  27         0.03399565
  28         0.04028520
  29         0.00245463
  30         0.00573887
  31         0.01502751
  32         0.00834073
  33         0.03019249
  34        -0.31694117
  35        -1.23698433
  36         0.30298239
  37         0.18520190
  38        -0.03025128
  39         0.09336364
  40        -1.53204633
  41         0.10607421
  42        -0.13257808
  43        -0.01148792
  44        -0.01480802
  45         0.00849926
  46        -0.02477575
  47        -0.03019179
  48         0.31694399
  49         1.23698131
  50         0.22209312
  51        -0.27861298
  52         0.00794851
  53         0.60605826
  54         1.40761397
  55        -0.13580309
  56         0.13234726
  57         0.01489270
  58         0.01587127
  59        -0.02189203
  60        -0.01205784
  61        -0.05803129
  62        -0.46186222
  63        -0.52395032
  64         0.04968210
  65         0.37252443
  66        -0.02978947
  67        -0.59607704
  68         0.20499897
  69         0.01808815
  70        -0.04013712
  71        -0.00466100
  72        -0.00642496
  73        -0.00632340
  74         0.01559845
  75        -0.18571595
  76         0.47519410
  77        -0.03348688
  78         0.01820940
  79         0.00052855
  80         0.71631126
  81        -1.28463456
  82         0.05379452
  83        -0.09361369
  84         0.00381573
  85        -0.71631082
  86         1.28463351
  87         0.08222785
  88         0.06941468
  89        -0.00959613
  90         0.18571442
  91        -0.47519210
  92        -0.03763203
  93        -0.00555806
  94         0.00248407
Sym=    42a  
Ene=     0.7224
Spin= Alpha
Occup=    0.00000
   1         0.00000241
   2         0.00001751
   3         0.00004697
   4        -0.00008715
   5        -0.00000794
   6         0.00000066
   7         0.00000046
   8        -0.00007164
   9         0.00000117
  10         0.00000447
  11         0.00011166
  12         0.00000802
  13        -0.00000753
  14         0.00895681
  15        -0.12158491
  16         0.02205672
  17        -0.00830951
  18        -0.00764968
  19         0.00000426
  20         0.00004334
  21         0.00007219
  22         0.05088131
  23         0.06669073
  24         0.91917645
  25        -0.05799900
  26        -0.07599955
  27        -1.04644462
  28         0.01234015
  29        -0.06911256
  30        -0.04459979
  31        -0.00057392
  32        -0.00754457
  33         0.00000684
  34         0.00000117
  35        -0.00008691
  36         0.02317611
  37         0.03041629
  38         0.41888173
  39        -0.03238453
  40        -0.04254718
  41        -0.58441932
  42        -0.01595079
  43         0.05063619
  44         0.08708402
  45        -0.00353675
  46         0.00856831
  47         0.00000920
  48         0.00005778
  49         0.00000168
  50        -0.02316378
  51        -0.03040938
  52        -0.41888334
  53         0.03230763
  54         0.04250057
  55         0.58442745
  56         0.01083096
  57         0.01872600
  58        -0.09966753
  59         0.00828915
  60        -0.00420826
  61         0.00000296
  62        -0.00000047
  63        -0.00003211
  64        -0.05087151
  65        -0.06673917
  66        -0.91917358
  67         0.05792490
  68         0.07604973
  69         1.04644524
  70        -0.00356036
  71        -0.05017432
  72         0.06623782
  73        -0.00759155
  74         0.00004000
  75        -0.00004028
  76         0.00007066
  77         0.00063861
  78         0.00084333
  79         0.01162865
  80         0.00004380
  81        -0.00007921
  82        -0.00080566
  83        -0.00106675
  84        -0.01458720
  85        -0.00002592
  86         0.00004349
  87         0.00080939
  88         0.00106106
  89         0.01458738
  90         0.00002677
  91        -0.00003494
  92        -0.00064947
  93        -0.00084317
  94        -0.01162810
Sym=    43a  
Ene=     0.7351
Spin= Alpha
Occup=    0.00000
   1         0.00836121
   2         0.06277361
   3         0.17631276
   4         0.07150226
   5         0.00094270
   6         0.00540633
   7        -0.00044629
   8         0.02105727
   9         0.12074623
  10        -0.00994642
  11        -0.03332390
  12        -0.19107925
  13         0.01573310
  14        -0.08667409
  15        -0.00448317
  16        -0.02357131
  17        -0.13547049
  18         0.04870507
  19        -0.05551815
  20        -0.45721903
  21        -0.11960287
  22         0.03543997
  23         0.36425055
  24        -0.02837725
  25         0.40096986
  26        -0.16979311
  27        -0.00990627
  28        -0.01800330
  29        -0.00511320
  30        -0.00345353
  31         0.01232196
  32         0.03682545
  33        -0.19592457
  34        -0.65994557
  35         0.93948741
  36         0.60487928
  37        -0.15481711
  38        -0.02223300
  39        -0.63979325
  40         0.65725047
  41        -0.01230315
  42         0.17618028
  43         0.01644283
  44         0.02344138
  45         0.01354379
  46        -0.00204722
  47        -0.19592470
  48        -0.65994466
  49         0.93948942
  50        -0.62085042
  51         0.06323603
  52         0.02976324
  53         0.82364666
  54         0.39691072
  55        -0.07440625
  56         0.17616152
  57         0.01673112
  58         0.02353014
  59         0.01240835
  60        -0.00516983
  61        -0.05551840
  62        -0.45722071
  63        -0.11960384
  64         0.08992506
  65         0.35455458
  66        -0.03074548
  67        -0.43428166
  68        -0.02119845
  69         0.02560312
  70        -0.01846197
  71         0.00166073
  72        -0.00134072
  73        -0.01428212
  74        -0.03634229
  75         0.45385694
  76        -0.63384258
  77         0.04419926
  78         0.04022025
  79        -0.00536654
  80        -0.48375713
  81         0.67378071
  82        -0.02157262
  83         0.09519875
  84        -0.00571558
  85        -0.48375924
  86         0.67378377
  87         0.05248194
  88         0.08202444
  89        -0.00886272
  90         0.45385722
  91        -0.63384332
  92        -0.02793191
  93         0.05305214
  94        -0.00230641
Sym=    44a  
Ene=     0.8011
Spin= Alpha
Occup=    0.00000
   1         0.00000071
   2         0.00000516
   3         0.00001327
   4        -0.00002298
   5         0.00048690
   6         0.00064062
   7         0.00882091
   8         0.00564765
   9         0.00743652
  10         0.10238687
  11         0.01188786
  12         0.01548676
  13         0.21340140
  14        -0.04684155
  15         0.05584611
  16         0.32684864
  17        -0.02070076
  18         0.02234661
  19         0.00000936
  20         0.00003961
  21        -0.00013418
  22         0.04593527
  23         0.06028546
  24         0.83039415
  25        -0.06420928
  26        -0.08436762
  27        -1.16197021
  28        -0.00914269
  29         0.09002135
  30         0.00347400
  31         0.00472358
  32         0.00676396
  33        -0.00000468
  34        -0.00003640
  35         0.00016491
  36        -0.03163239
  37        -0.04149572
  38        -0.57157336
  39         0.04669201
  40         0.06138016
  41         0.84417203
  42        -0.01006203
  43         0.12545220
  44        -0.01643418
  45         0.00812361
  46         0.00823385
  47         0.00000605
  48         0.00004284
  49        -0.00017804
  50        -0.03162553
  51        -0.04148965
  52        -0.57156128
  53         0.04663632
  54         0.06118412
  55         0.84417120
  56         0.00830401
  57        -0.12335426
  58         0.02870495
  59        -0.00890455
  60        -0.00741395
  61        -0.00001105
  62        -0.00005067
  63         0.00017184
  64         0.04592879
  65         0.06030812
  66         0.83038779
  67        -0.06417670
  68        -0.08441124
  69        -1.16196331
  70         0.00363167
  71        -0.08345447
  72         0.03494245
  73        -0.00716009
  74        -0.00414512
  75         0.00000767
  76        -0.00004728
  77         0.00146544
  78         0.00191763
  79         0.02642016
  80         0.00006162
  81        -0.00003869
  82         0.00071446
  83         0.00092056
  84         0.01279123
  85        -0.00007048
  86         0.00002869
  87         0.00071588
  88         0.00093408
  89         0.01279055
  90         0.00000237
  91         0.00005086
  92         0.00146431
  93         0.00191774
  94         0.02641938
Sym=    45a  
Ene=     0.8035
Spin= Alpha
Occup=    0.00000
   1        -0.00000024
   2        -0.00000168
   3        -0.00000495
   4         0.00001304
   5        -0.00000106
   6         0.00000198
   7        -0.00000006
   8        -0.00001202
   9         0.00002158
  10        -0.00000045
  11         0.00002516
  12        -0.00002760
  13         0.00000304
  14        -0.04922809
  15         0.66810225
  16        -0.12119570
  17         0.04570501
  18         0.04201600
  19         0.00000098
  20        -0.00000627
  21        -0.00004482
  22        -0.01614266
  23        -0.02111985
  24        -0.29123245
  25         0.01743860
  26         0.02279167
  27         0.31396688
  28         0.00036621
  29        -0.10097289
  30         0.07408839
  31        -0.01096083
  32        -0.00322693
  33        -0.00000407
  34        -0.00001854
  35         0.00004752
  36         0.04076566
  37         0.05343778
  38         0.73606136
  39        -0.05722608
  40        -0.07504725
  41        -1.03415768
  42         0.00223204
  43         0.01395518
  44        -0.02824894
  45         0.00282682
  46        -0.00056276
  47        -0.00000480
  48        -0.00002101
  49         0.00000892
  50        -0.04075334
  51        -0.05345361
  52        -0.73607071
  53         0.05727421
  54         0.07504561
  55         1.03416976
  56        -0.00491619
  57         0.02247809
  58         0.02164037
  59        -0.00033214
  60         0.00284924
  61        -0.00000234
  62        -0.00000647
  63         0.00005206
  64         0.01611041
  65         0.02114789
  66         0.29124689
  67        -0.01734402
  68        -0.02282761
  69        -0.31399023
  70         0.01587252
  71        -0.11946030
  72        -0.03410065
  73        -0.00411922
  74        -0.01063272
  75         0.00003191
  76        -0.00006064
  77        -0.00276955
  78        -0.00363734
  79        -0.05014698
  80        -0.00000804
  81         0.00000215
  82         0.00132605
  83         0.00173738
  84         0.02391111
  85        -0.00002692
  86         0.00001674
  87        -0.00131987
  88        -0.00173509
  89        -0.02391143
  90        -0.00000307
  91         0.00002599
  92         0.00277712
  93         0.00363915
  94         0.05014683
Sym=    46a  
Ene=     0.8149
Spin= Alpha
Occup=    0.00000
   1        -0.00000001
   2        -0.00000009
   3        -0.00000025
   4         0.00000017
   5        -0.07897154
   6         0.01404859
   7         0.00334738
   8        -0.76535892
   9         0.13615316
  10         0.03244310
  11         1.94796965
  12        -0.34653801
  13        -0.08263084
  14        -0.00120411
  15         0.01789954
  16         0.00554050
  17        -0.07042947
  18        -0.19371008
  19         0.04081378
  20         0.04809825
  21        -0.49000265
  22        -0.58582764
  23         0.34264126
  24         0.00754826
  25         1.38792927
  26        -0.91542477
  27        -0.01036801
  28        -0.02292968
  29        -0.01717860
  30         0.00801282
  31         0.19449677
  32         0.05771187
  33         0.02296719
  34         0.07349068
  35        -0.79762145
  36        -0.32895279
  37         0.17983475
  38         0.00515755
  39         1.13131409
  40        -0.42509732
  41        -0.03178348
  42         0.03219651
  43         0.01192107
  44        -0.00573368
  45        -0.14397377
  46        -0.01173518
  47        -0.02296727
  48        -0.07349101
  49         0.79762183
  50        -0.36999429
  51        -0.05549026
  52         0.02453844
  53         1.20704029
  54         0.00910057
  55        -0.06753422
  56        -0.03290552
  57        -0.00141354
  58         0.00899553
  59         0.10268536
  60        -0.10182236
  61        -0.04081385
  62        -0.04809864
  63         0.49000324
  64        -0.66649144
  65        -0.11985780
  66         0.04556864
  67         1.61410098
  68         0.38137039
  69        -0.11700015
  70         0.02434670
  71        -0.00383190
  72        -0.01453278
  73        -0.11191657
  74         0.16941298
  75         0.40612727
  76        -1.29622004
  77         0.13448324
  78         0.01927240
  79        -0.00884432
  80         0.11106323
  81        -0.63543412
  82         0.04056912
  83        -0.03748462
  84         0.00047429
  85        -0.11106339
  86         0.63543450
  87         0.05080919
  88         0.02122846
  89        -0.00435371
  90        -0.40612681
  91         1.29621910
  92         0.11986865
  93        -0.06452168
  94        -0.00195437
Sym=    47a  
Ene=     0.8428
Spin= Alpha
Occup=    0.00000
   1         0.00000129
   2         0.00000924
   3         0.00002314
   4        -0.00006349
   5         0.00753246
   6         0.00988127
   7         0.13608608
   8         0.06763944
   9         0.08875349
  10         1.22233449
  11        -0.09282884
  12        -0.12192085
  13        -1.67930873
  14        -0.08636884
  15         0.10299330
  16         0.60271334
  17        -0.03817406
  18         0.04120304
  19         0.00000842
  20         0.00002977
  21        -0.00015516
  22        -0.02236831
  23        -0.02926347
  24        -0.40353313
  25         0.04910281
  26         0.06410382
  27         0.88411072
  28        -0.00511869
  29         0.14143367
  30        -0.06747408
  31         0.01271900
  32         0.00655116
  33        -0.00001058
  34        -0.00005252
  35         0.00030396
  36         0.00721704
  37         0.00938441
  38         0.12954070
  39        -0.01573531
  40        -0.02020303
  41        -0.28085959
  42         0.00580523
  43         0.04319096
  44        -0.07882982
  45         0.00812639
  46        -0.00126902
  47         0.00000897
  48         0.00004806
  49        -0.00035449
  50         0.00722423
  51         0.00942665
  52         0.12953737
  53        -0.01582590
  54        -0.02058311
  55        -0.28082761
  56         0.01394197
  57        -0.06672158
  58        -0.05888671
  59         0.00059616
  60        -0.00817368
  61        -0.00001316
  62        -0.00004942
  63         0.00024699
  64        -0.02239616
  65        -0.02928640
  66        -0.40352993
  67         0.04922856
  68         0.06412675
  69         0.88410265
  70         0.01674147
  71        -0.15529414
  72        -0.01364660
  73        -0.00759086
  74        -0.01211500
  75        -0.00000308
  76        -0.00005536
  77         0.00283126
  78         0.00371205
  79         0.05111697
  80         0.00003429
  81         0.00003903
  82         0.00084913
  83         0.00110464
  84         0.01522929
  85        -0.00005648
  86        -0.00006302
  87         0.00084859
  88         0.00110547
  89         0.01522923
  90         0.00002017
  91         0.00010159
  92         0.00283338
  93         0.00370895
  94         0.05111711
Sym=    48a  
Ene=     0.8676
Spin= Alpha
Occup=    0.00000
   1        -0.00000353
   2        -0.00002567
   3        -0.00006861
   4         0.00012306
   5         0.00000072
   6         0.00000288
   7        -0.00000029
   8         0.00000692
   9         0.00003078
  10        -0.00000301
  11        -0.00001867
  12        -0.00006972
  13         0.00000659
  14        -0.04085895
  15         0.55466818
  16        -0.10062053
  17         0.03793719
  18         0.03489020
  19        -0.00000044
  20        -0.00000299
  21        -0.00010020
  22         0.02689647
  23         0.03530420
  24         0.48634754
  25        -0.05773515
  26        -0.07581238
  27        -1.04498761
  28        -0.01573528
  29        -0.03550823
  30         0.15123413
  31        -0.01295904
  32         0.00586436
  33         0.00000296
  34         0.00002174
  35         0.00000859
  36        -0.03890807
  37        -0.05107419
  38        -0.70301797
  39         0.08263458
  40         0.10848120
  41         1.49253409
  42        -0.00009388
  43        -0.02881095
  44         0.02272569
  45        -0.00324457
  46        -0.00082026
  47         0.00000456
  48         0.00003100
  49        -0.00001153
  50         0.03889608
  51         0.05100641
  52         0.70302373
  53        -0.08255557
  54        -0.10826559
  55        -1.49255430
  56         0.00477201
  57        -0.03460945
  58        -0.01122068
  59        -0.00110267
  60        -0.00316615
  61         0.00000365
  62         0.00002065
  63        -0.00011031
  64        -0.02690265
  65        -0.03531685
  66        -0.48634607
  67         0.05777036
  68         0.07591294
  69         1.04497799
  70         0.02451966
  71        -0.08350304
  72        -0.12964182
  73         0.00482581
  74        -0.01335028
  75         0.00000629
  76        -0.00005753
  77        -0.00241903
  78        -0.00317453
  79        -0.04376029
  80        -0.00001260
  81         0.00008118
  82         0.00147824
  83         0.00195173
  84         0.02675778
  85        -0.00001432
  86         0.00009067
  87        -0.00147389
  88        -0.00193529
  89        -0.02675917
  90         0.00000105
  91        -0.00002871
  92         0.00242252
  93         0.00317792
  94         0.04375979
Sym=    49a  
Ene=     0.8744
Spin= Alpha
Occup=    0.00000
   1         0.00995864
   2         0.07120399
   3         0.19107171
   4        -0.60628013
   5        -0.00384721
   6        -0.02205820
   7         0.00181246
   8        -0.04776989
   9        -0.27389326
  10         0.02251124
  11         0.13674490
  12         0.78404698
  13        -0.06446692
  14         0.08201878
  15         0.00001442
  16         0.03601994
  17         0.27575455
  18        -0.09973765
  19        -0.03674728
  20        -0.17736750
  21         1.63864727
  22         0.50910006
  23         0.36652315
  24        -0.05476557
  25        -1.89501832
  26        -1.22951792
  27         0.19409720
  28        -0.07154664
  29        -0.00786473
  30        -0.02310680
  31        -0.11580409
  32         0.10046442
  33        -0.06021632
  34        -0.29651755
  35        -0.81618172
  36         0.02635015
  37         0.63272611
  38        -0.04742196
  39        -0.17653112
  40        -2.00902320
  41         0.15568279
  42         0.07918088
  43         0.02485373
  44         0.02340481
  45         0.00166561
  46        -0.23671550
  47        -0.06021625
  48        -0.29651745
  49        -0.81618128
  50         0.18929935
  51         0.60374205
  52        -0.05427937
  53        -0.51378374
  54        -1.94903427
  55         0.16989414
  56         0.08178827
  57        -0.01381791
  58         0.01141264
  59         0.15363805
  60         0.18126482
  61        -0.03674715
  62        -0.17736686
  63         1.63864638
  64        -0.35445772
  65         0.52014484
  66        -0.01816256
  67         1.36499602
  68        -1.80945996
  69         0.05587189
  70        -0.07219268
  71         0.00175304
  72        -0.02014650
  73        -0.15357687
  74        -0.00343050
  75        -0.03030929
  76         0.93855045
  77        -0.07257241
  78        -0.02103793
  79         0.00554100
  80         0.10707773
  81        -1.16371446
  82         0.04713401
  83        -0.10161976
  84         0.00477102
  85         0.10707792
  86        -1.16371442
  87        -0.07867715
  88        -0.07923849
  89         0.01010544
  90        -0.03030940
  91         0.93855080
  92         0.06108701
  93        -0.04481533
  94        -0.00012564
Sym=    50a  
Ene=     0.9204
Spin= Alpha
Occup=    0.00000
   1        -0.00000003
   2        -0.00000019
   3        -0.00000049
   4         0.00000161
   5         0.04017830
   6        -0.00714700
   7        -0.00169666
   8         0.45123586
   9        -0.08026842
  10        -0.01907711
  11        -1.78973102
  12         0.31838145
  13         0.07584581
  14         0.00218337
  15        -0.03249276
  16        -0.01002443
  17         0.12774290
  18         0.35135408
  19        -0.13816690
  20        -0.58049178
  21         1.46254969
  22         0.31850577
  23        -0.20178658
  24        -0.00299685
  25        -1.38410490
  26         1.32881922
  27        -0.01980173
  28         0.02513672
  29        -0.00172371
  30         0.00186417
  31         0.01626876
  32         0.04470103
  33        -0.04160595
  34        -0.19136872
  35        -1.64358637
  36        -0.66316427
  37         0.58367885
  38        -0.00566768
  39         3.04880040
  40        -2.09025838
  41        -0.01707594
  42         0.10261534
  43         0.01653001
  44         0.00039138
  45        -0.15357128
  46         0.02576890
  47         0.04160562
  48         0.19136732
  49         1.64358940
  50        -0.82072143
  51        -0.31969900
  52         0.06862308
  53         3.57247869
  54         0.91233470
  55        -0.26401365
  56        -0.10295271
  57        -0.01151076
  58         0.00115739
  59         0.13384596
  60        -0.08002248
  61         0.13816678
  62         0.58049103
  63        -1.46255023
  64         0.36760473
  65         0.07972582
  66        -0.02614811
  67        -1.75036793
  68        -0.77119226
  69         0.15291003
  70        -0.02457886
  71        -0.00652780
  72        -0.00443133
  73         0.01614012
  74         0.04443278
  75        -0.10539500
  76         0.50015443
  77        -0.02623858
  78        -0.01187723
  79         0.00231756
  80        -0.00716922
  81        -1.46770942
  82         0.03537706
  83        -0.12305711
  84         0.00697244
  85         0.00716914
  86         1.46770988
  87         0.07488032
  88         0.10344203
  89        -0.01165718
  90         0.10539510
  91        -0.50015666
  92        -0.02064114
  93         0.02021763
  94        -0.00032273
Sym=    51a  
Ene=     0.9326
Spin= Alpha
Occup=    0.00000
   1         0.11296686
   2         0.81904210
   3         2.11707838
   4        -4.03960695
   5         0.00905056
   6         0.05189300
   7        -0.00426930
   8         0.06246777
   9         0.35817046
  10        -0.02946934
  11         0.08999073
  12         0.51597617
  13        -0.04242090
  14        -0.02779507
  15         0.00091947
  16        -0.01518539
  17        -0.12529768
  18         0.04537943
  19         0.12399566
  20         0.62198846
  21        -1.12771211
  22         0.73161742
  23        -0.21666502
  24        -0.02477057
  25        -1.71111049
  26         0.93593366
  27         0.02677217
  28         0.07948860
  29         0.02018881
  30         0.00596611
  31        -0.11898132
  32        -0.08121759
  33         0.03730161
  34         0.17044072
  35        -0.17759904
  36         0.04503636
  37        -0.24279837
  38         0.01513378
  39         0.22580059
  40         0.54161475
  41        -0.05180819
  42         0.04603375
  43        -0.00492627
  44         0.00536477
  45         0.05833361
  46         0.08428866
  47         0.03730165
  48         0.17044086
  49        -0.17760131
  50        -0.12446994
  51        -0.21264359
  52         0.02232756
  53        -0.02897083
  54         0.58693537
  55        -0.04101929
  56         0.04487384
  57         0.01227029
  58         0.01070005
  59        -0.00924047
  60        -0.10156521
  61         0.12399572
  62         0.62198886
  63        -1.12771151
  64        -0.76088590
  65         0.04885014
  66         0.03857646
  67         1.92477072
  68         0.28911278
  69        -0.12753774
  70         0.08086592
  71        -0.00023863
  72        -0.00036760
  73        -0.03871019
  74         0.13955837
  75        -0.07113378
  76         1.21242259
  77        -0.18820727
  78         0.00356902
  79         0.01015862
  80         0.15276492
  81         0.33663497
  82        -0.02810347
  83         0.04466309
  84        -0.00168599
  85         0.15276448
  86         0.33663618
  87         0.04152255
  88         0.03227682
  89        -0.00464155
  90        -0.07113311
  91         1.21242380
  92         0.17808731
  93        -0.06159428
  94        -0.00538497
Sym=    52a  
Ene=     0.9764
Spin= Alpha
Occup=    0.00000
   1        -0.00000014
   2        -0.00000100
   3        -0.00000266
   4         0.00000480
   5        -0.05244885
   6         0.00933076
   7         0.00222780
   8        -0.44296338
   9         0.07880434
  10         0.01881502
  11         1.68340928
  12        -0.29947853
  13        -0.07145753
  14        -0.00056744
  15         0.00838781
  16         0.00262118
  17        -0.03295130
  18        -0.09062288
  19         0.22232286
  20         0.94405164
  21        -0.26915299
  22         0.50456285
  23         0.60211179
  24        -0.07163444
  25        -1.99566889
  26        -2.24649614
  27         0.27353230
  28        -0.10676117
  29        -0.01745223
  30        -0.02872085
  31        -0.08447396
  32         0.16152012
  33         0.07451391
  34         0.41773545
  35        -2.29274831
  36         0.17218546
  37         0.50852406
  38        -0.04647167
  39        -0.70491468
  40        -2.29319674
  41         0.20552684
  42         0.07257974
  43         0.00966635
  44         0.01778182
  45         0.05693223
  46        -0.07928195
  47        -0.07451197
  48        -0.41772645
  49         2.29273235
  50        -0.01022267
  51        -0.53734041
  52         0.03956519
  53         0.11334572
  54         2.39843702
  55        -0.18041939
  56        -0.07323045
  57        -0.00001607
  58        -0.01478917
  59        -0.09485300
  60        -0.02501575
  61        -0.22232172
  62        -0.94404644
  63         0.26914758
  64         0.27048991
  65        -0.73998912
  66         0.03875153
  67        -1.11552554
  68         2.79996294
  69        -0.14155143
  70         0.10821033
  71        -0.00404015
  72         0.02205677
  73         0.16892171
  74         0.07074503
  75         0.33260576
  76         0.97233222
  77        -0.11073498
  78         0.01732704
  79         0.00487069
  80        -0.15017272
  81        -0.50792892
  82         0.04138817
  83        -0.00161070
  84        -0.00217648
  85         0.15017254
  86         0.50793317
  87         0.03944242
  88        -0.01276871
  89        -0.00125967
  90        -0.33260449
  91        -0.97233078
  92        -0.10993197
  93         0.02192930
  94         0.00449266
Sym=    53a  
Ene=     0.9834
Spin= Alpha
Occup=    0.00000
   1        -0.06598110
   2        -0.47794242
   3        -1.25240589
   4         2.39922184
   5        -0.00027561
   6        -0.00158101
   7         0.00012973
   8         0.01364453
   9         0.07822649
  10        -0.00643593
  11        -0.06334813
  12        -0.36318696
  13         0.02987056
  14         0.31683480
  15         0.02879867
  16         0.04549671
  17         0.05838762
  18        -0.01923521
  19         0.20469088
  20         0.93083771
  21        -0.89322690
  22        -0.03098751
  23         0.53111180
  24        -0.03684684
  25        -0.38872855
  26        -1.42559187
  27         0.12502670
  28        -0.03629501
  29        -0.00477724
  30        -0.01867347
  31        -0.11384260
  32         0.10345210
  33         0.35744259
  34         1.65375303
  35        -3.21834092
  36         0.20532264
  37        -0.14128167
  38        -0.00109348
  39        -0.73551233
  40         0.07899666
  41         0.03493714
  42        -0.00410175
  43        -0.00549698
  44         0.00602198
  45         0.09075808
  46         0.00113807
  47         0.35744299
  48         1.65375540
  49        -3.21835217
  50        -0.24076417
  51        -0.06192353
  52         0.01780356
  53         0.71797424
  54        -0.17958087
  55        -0.02665360
  56        -0.00447816
  57         0.00008813
  58         0.00775495
  59         0.06881708
  60        -0.05920896
  61         0.20469214
  62         0.93084296
  63        -0.89322968
  64         0.20880651
  65         0.48845734
  66        -0.04701408
  67        -0.11696783
  68        -1.47395469
  69         0.11347080
  70        -0.03698192
  71         0.00540797
  72        -0.01552084
  73        -0.15385204
  74        -0.00658796
  75         0.28073570
  76         0.33258467
  77        -0.04432943
  78         0.01442602
  79         0.00140878
  80        -0.02254311
  81         0.67396770
  82        -0.03293003
  83         0.13406462
  84        -0.00791329
  85        -0.02254381
  86         0.67396623
  87         0.07630454
  88         0.11463244
  89        -0.01254438
  90         0.28073754
  91         0.33258987
  92         0.04654242
  93        -0.00174055
  94        -0.00245440
Sym=    54a  
Ene=     1.0791
Spin= Alpha
Occup=    0.00000
   1         0.00000001
   2         0.00000007
   3         0.00000015
   4        -0.00000068
   5         0.00877410
   6        -0.00156086
   7        -0.00037203
   8         0.08178117
   9        -0.01454850
  10        -0.00346905
  11        -0.34332070
  12         0.06107486
  13         0.01455159
  14         0.00003351
  15        -0.00048257
  16        -0.00015854
  17         0.00191736
  18         0.00527163
  19         0.35140643
  20         1.57783794
  21        -4.40020587
  22         0.17420879
  23        -0.25008011
  24         0.00850606
  25        -0.27595981
  26         1.63437747
  27        -0.10333250
  28        -0.02309159
  29         0.00292422
  30         0.00664177
  31         0.04884853
  32        -0.10740558
  33         0.24312432
  34         1.05942889
  35        -2.17659873
  36        -0.52534668
  37        -0.40808169
  38         0.05873468
  39         3.34567855
  40         2.24316389
  41        -0.34812562
  42        -0.04736698
  43        -0.00404368
  44        -0.02901969
  45        -0.20339723
  46         0.14655965
  47        -0.24312454
  48        -1.05942981
  49         2.17660122
  50        -0.35566525
  51         0.56481723
  52        -0.02129381
  53         2.38540632
  54        -3.26272890
  55         0.10477690
  56         0.04817386
  57        -0.00787819
  58         0.02530200
  59         0.25022725
  60        -0.01776484
  61        -0.35140613
  62        -1.57783659
  63         4.40020462
  64         0.24833055
  65         0.17491014
  66        -0.02644995
  67        -0.81228794
  68        -1.44077001
  69         0.14962434
  70         0.02210326
  71         0.01170466
  72        -0.00209111
  73        -0.10633591
  74        -0.05070274
  75         0.25629443
  76         0.34958940
  77        -0.10967923
  78        -0.02491293
  79         0.00788760
  80         0.33635564
  81         0.32355969
  82        -0.03359340
  83         0.05377611
  84        -0.00203771
  85        -0.33635670
  86        -0.32356039
  87        -0.04976501
  88        -0.03894570
  89         0.00558792
  90        -0.25629389
  91        -0.34958925
  92        -0.09464917
  93         0.06126417
  94         0.00080059
Sym=    55a  
Ene=     1.1045
Spin= Alpha
Occup=    0.00000
   1         0.02222216
   2         0.16042735
   3         0.38589744
   4        -1.14531419
   5         0.00710995
   6         0.04076597
   7        -0.00335330
   8         0.05586372
   9         0.32030359
  10        -0.02634602
  11        -0.05049722
  12        -0.28953830
  13         0.02382472
  14         0.28682830
  15         0.04525679
  16        -0.02109711
  17        -0.61617814
  18         0.22582687
  19         0.14003837
  20         0.65994322
  21        -1.21635668
  22        -0.07977219
  23         0.14317385
  24        -0.00597786
  25        -0.26242533
  26         0.97895886
  27        -0.05654316
  28        -0.02122455
  29        -0.00564644
  30         0.00305623
  31         0.07387628
  32        -0.00672812
  33        -0.09865557
  34        -0.38519069
  35         2.27260120
  36        -0.22184191
  37         0.43438152
  38        -0.01926377
  39         1.37995129
  40        -1.04728687
  41        -0.00032844
  42        -0.05058680
  43        -0.00922741
  44        -0.00676527
  45         0.02571228
  46         0.03992027
  47        -0.09865557
  48        -0.38519070
  49         2.27259919
  50         0.35544904
  51         0.33168133
  52        -0.04376293
  53        -1.65121864
  54        -0.50804547
  55         0.12826696
  56        -0.05113307
  57        -0.00112319
  58        -0.00425283
  59        -0.00613700
  60        -0.04767683
  61         0.14003858
  62         0.65994422
  63        -1.21636204
  64         0.12340804
  65         0.10702769
  66        -0.01460937
  67         0.57783575
  68         0.82947860
  69        -0.09220934
  70        -0.02144814
  71        -0.00231808
  72         0.00407424
  73         0.06086181
  74        -0.04252692
  75         0.03989998
  76         0.17041966
  77        -0.02673708
  78         0.10820863
  79        -0.00637812
  80        -0.88352043
  81        -0.32782029
  82         0.06726347
  83        -0.03896285
  84        -0.00089764
  85        -0.88352034
  86        -0.32782036
  87        -0.07639730
  88        -0.01340583
  89         0.00519706
  90         0.03990203
  91         0.17042071
  92         0.06173648
  93         0.09246876
  94        -0.01013907
Sym=    56a  
Ene=     1.1409
Spin= Alpha
Occup=    0.00000
   1         0.00000285
   2         0.00002030
   3         0.00004673
   4        -0.00013124
   5        -0.00155467
   6        -0.00205319
   7        -0.02829094
   8        -0.01245180
   9        -0.01641883
  10        -0.22628869
  11         0.01904834
  12         0.02495500
  13         0.34353971
  14         0.04201208
  15        -0.05006466
  16        -0.29300843
  17         0.01854407
  18        -0.02006956
  19        -0.00000757
  20        -0.00004258
  21        -0.00012160
  22         0.00709501
  23         0.00936688
  24         0.12796113
  25        -0.00747228
  26        -0.01014994
  27        -0.13828777
  28        -0.03696516
  29         0.22049934
  30         0.12348392
  31         0.00317897
  32         0.02301060
  33        -0.00003252
  34        -0.00011730
  35         0.00073978
  36         0.01607089
  37         0.02114081
  38         0.29052815
  39        -0.01442820
  40        -0.01820144
  41        -0.25461421
  42         0.04328704
  43         0.05053671
  44        -0.38003300
  45         0.03043697
  46        -0.01760536
  47         0.00003107
  48         0.00010957
  49        -0.00065435
  50         0.01609046
  51         0.02105022
  52         0.29053343
  53        -0.01466417
  54        -0.01868602
  55        -0.25456564
  56         0.05982664
  57        -0.17346235
  58        -0.33939345
  59         0.01509826
  60        -0.03169975
  61         0.00001125
  62         0.00006857
  63         0.00013820
  64         0.00708810
  65         0.00922000
  66         0.12797208
  67        -0.00730824
  68        -0.00997719
  69        -0.13830940
  70        -0.00849278
  71        -0.16630728
  72         0.19365196
  73        -0.02326104
  74        -0.00133681
  75        -0.00005035
  76        -0.00001796
  77         0.00675603
  78         0.00886546
  79         0.12217779
  80         0.00011514
  81        -0.00000136
  82         0.01058215
  83         0.01383261
  84         0.19089089
  85        -0.00019035
  86        -0.00001554
  87         0.01058587
  88         0.01388226
  89         0.19088705
  90         0.00011108
  91         0.00002256
  92         0.00675519
  93         0.00888669
  94         0.12217622
Sym=    57a  
Ene=     1.1613
Spin= Alpha
Occup=    0.00000
   1        -0.00000004
   2        -0.00000028
   3        -0.00000067
   4         0.00000165
   5         0.01621692
   6        -0.00288521
   7        -0.00069131
   8         0.05028353
   9        -0.00894694
  10        -0.00215321
  11         0.19935024
  12        -0.03546099
  13        -0.00841724
  14        -0.00353269
  15         0.05243635
  16         0.01623478
  17        -0.20607115
  18        -0.56677870
  19         0.14628005
  20         0.51477878
  21        -0.49001837
  22        -0.15841196
  23        -0.25905132
  24         0.02755443
  25         1.87351020
  26         0.24398571
  27        -0.12142856
  28        -0.11515870
  29        -0.00230164
  30        -0.02101003
  31        -0.11431953
  32        -0.03460816
  33         0.04050508
  34         0.24339063
  35         1.04906104
  36        -0.20639756
  37         0.36182425
  38        -0.01481520
  39        -0.24755276
  40        -1.23037704
  41         0.10302276
  42        -0.05089370
  43        -0.00936642
  44        -0.01331568
  45        -0.02955100
  46         0.08413550
  47        -0.04050447
  48        -0.24338793
  49        -1.04906904
  50        -0.31638727
  51        -0.26881745
  52         0.03705127
  53         0.18360994
  54         1.24175173
  55        -0.10031412
  56         0.05170344
  57        -0.00267976
  58         0.00959863
  59         0.07689093
  60         0.04607098
  61        -0.14628079
  62        -0.51478219
  63         0.49002535
  64        -0.06123622
  65         0.29812354
  66        -0.01827108
  67         1.67820272
  68        -0.87583530
  69        -0.02931808
  70         0.11433521
  71         0.01462185
  72         0.02477829
  73         0.06586476
  74        -0.09867331
  75        -0.91542643
  76        -0.19282299
  77        -0.04063627
  78        -0.02580784
  79         0.00410568
  80        -0.54761710
  81        -0.20115721
  82        -0.06503700
  83        -0.06028749
  84         0.00799996
  85         0.54761834
  86         0.20115793
  87        -0.04072566
  88         0.07910596
  89        -0.00347005
  90         0.91542470
  91         0.19282310
  92        -0.02945988
  93         0.03827489
  94        -0.00116543
Sym=    58a  
Ene=     1.2121
Spin= Alpha
Occup=    0.00000
   1        -0.02508757
   2        -0.18135224
   3        -0.47873739
   4         0.67878381
   5        -0.00131538
   6        -0.00754220
   7         0.00062157
   8         0.00788367
   9         0.04520147
  10        -0.00371036
  11        -0.00278648
  12        -0.01597464
  13         0.00129931
  14         0.13032180
  15        -0.00187324
  16         0.06330096
  17         0.50281296
  18        -0.18198720
  19         0.37387217
  20         1.63697885
  21        -3.74982986
  22        -0.10910508
  23        -0.02452241
  24         0.00781820
  25        -0.46483582
  26         0.51767769
  27        -0.01184079
  28         0.01703080
  29         0.00649739
  30         0.00800308
  31         0.01842092
  32        -0.08046704
  33        -0.26033453
  34        -1.17057729
  35         2.64450047
  36        -0.25874903
  37        -0.16255102
  38         0.02610153
  39         1.04261250
  40         0.48144254
  41        -0.09262974
  42         0.06480415
  43        -0.00325491
  44        -0.00624638
  45        -0.06257217
  46         0.17739615
  47        -0.26033452
  48        -1.17057752
  49         2.64449649
  50         0.18818099
  51        -0.24205815
  52         0.00716093
  53        -0.81698264
  54         0.81226023
  55        -0.01376881
  56         0.06310261
  57         0.02200225
  58         0.00154864
  59        -0.16163595
  60        -0.09507519
  61         0.37387212
  62         1.63697891
  63        -3.74983138
  64         0.09424319
  65        -0.06069590
  66        -0.00079149
  67         0.61200106
  68         0.32610580
  69        -0.05758034
  70         0.01784192
  71        -0.00557183
  72         0.00428036
  73         0.06587030
  74         0.05004021
  75         0.99882457
  76         0.00551725
  77        -0.01275897
  78        -0.04605975
  79         0.00404638
  80        -0.14543677
  81        -0.12297319
  82         0.04059139
  83        -0.03465725
  84         0.00025535
  85        -0.14543601
  86        -0.12297300
  87        -0.04987428
  88        -0.01856276
  89         0.00410153
  90         0.99882660
  91         0.00551776
  92        -0.00359140
  93        -0.04768929
  94         0.00367255
Sym=    59a  
Ene=     1.2225
Spin= Alpha
Occup=    0.00000
   1         0.00000027
   2         0.00000193
   3         0.00000327
   4        -0.00001723
   5        -0.00078873
   6        -0.00105417
   7        -0.01447696
   8        -0.00402999
   9        -0.00540521
  10        -0.07423802
  11         0.01029441
  12         0.01371545
  13         0.18828777
  14         0.02382471
  15        -0.02841125
  16        -0.16619920
  17         0.01060512
  18        -0.01126540
  19        -0.00003437
  20        -0.00012585
  21         0.00014745
  22        -0.00900613
  23        -0.01168566
  24        -0.16266172
  25         0.00522978
  26         0.00671903
  27         0.09492799
  28         0.03765188
  29        -0.08725575
  30        -0.23026912
  31         0.01192247
  32        -0.01923154
  33         0.00004147
  34         0.00018300
  35        -0.00036838
  36         0.00741967
  37         0.00968176
  38         0.13394889
  39        -0.00774122
  40        -0.00952449
  41        -0.13773468
  42        -0.04299176
  43         0.46039365
  44        -0.01203460
  45         0.02629100
  46         0.03292381
  47        -0.00006296
  48        -0.00028201
  49         0.00055196
  50         0.00745098
  51         0.00972906
  52         0.13394333
  53        -0.00795940
  54        -0.01032688
  55        -0.13766388
  56         0.02312241
  57        -0.43669012
  58         0.15070435
  59        -0.03511310
  60        -0.02351435
  61         0.00006246
  62         0.00025045
  63        -0.00041263
  64        -0.00903700
  65        -0.01193225
  66        -0.16264245
  67         0.00537386
  68         0.00706628
  69         0.09489521
  70         0.03077629
  71         0.00567727
  72        -0.24712853
  73         0.01832828
  74        -0.01339411
  75         0.00000717
  76         0.00000649
  77        -0.00761579
  78        -0.00998552
  79        -0.13756270
  80         0.00028005
  81         0.00007172
  82         0.00783272
  83         0.01024270
  84         0.14098283
  85        -0.00028080
  86        -0.00008083
  87         0.00782717
  88         0.01021618
  89         0.14098480
  90         0.00010053
  91        -0.00001001
  92        -0.00762129
  93        -0.00999665
  94        -0.13756195
Sym=    60a  
Ene=     1.2444
Spin= Alpha
Occup=    0.00000
   1        -0.00000008
   2        -0.00000058
   3        -0.00000148
   4         0.00000174
   5        -0.06794134
   6         0.01208647
   7         0.00287991
   8        -0.38869567
   9         0.06914743
  10         0.01647676
  11         0.32190216
  12        -0.05726369
  13        -0.01362030
  14        -0.00119644
  15         0.01782069
  16         0.00548690
  17        -0.07005431
  18        -0.19268479
  19         0.15910615
  20         0.66137224
  21        -1.69686420
  22         0.11283381
  23        -0.43837083
  24         0.02555873
  25        -1.30819219
  26         1.11479725
  27        -0.00850502
  28         0.00766724
  29         0.00350341
  30         0.01863223
  31         0.13547267
  32        -0.14013207
  33        -0.35655361
  34        -1.59864262
  35         2.51384320
  36        -0.01098396
  37        -0.11192515
  38         0.00877621
  39         1.16082194
  40        -0.86528785
  41        -0.00149530
  42         0.02655637
  43        -0.01251697
  44         0.00503716
  45         0.11590449
  46         0.12018384
  47         0.35655344
  48         1.59864193
  49        -2.51383954
  50         0.02754417
  51         0.10898509
  52        -0.00940907
  53         1.38369724
  54         0.41261346
  55        -0.10657985
  56        -0.02476428
  57        -0.01399233
  58        -0.01329246
  59        -0.01175505
  60         0.16625701
  61        -0.15910572
  62        -0.66137046
  63         1.69685929
  64         0.25434970
  65         0.37304468
  66        -0.04119364
  67        -1.60661103
  68        -0.59625236
  69         0.13224541
  70        -0.00865976
  71         0.01135572
  72        -0.01409929
  73        -0.19386877
  74        -0.02049851
  75         0.91570437
  76         0.10466043
  77         0.03032497
  78         0.02554333
  79        -0.00354333
  80        -0.95166783
  81        -0.22860504
  82        -0.01089033
  83         0.00631520
  84         0.00019395
  85         0.95166618
  86         0.22860538
  87        -0.01237045
  88        -0.00216947
  89         0.00088614
  90        -0.91570435
  91        -0.10465964
  92         0.01985751
  93        -0.03447318
  94         0.00138418
Sym=    61a  
Ene=     1.2795
Spin= Alpha
Occup=    0.00000
   1        -0.00000800
   2        -0.00005788
   3        -0.00014251
   4         0.00022638
   5         0.00000224
   6         0.00000260
   7        -0.00000030
   8         0.00001015
   9         0.00001709
  10        -0.00000176
  11        -0.00004670
  12        -0.00006370
  13         0.00000705
  14        -0.00386188
  15         0.05200284
  16        -0.00943751
  17         0.00358781
  18         0.00329423
  19         0.00001118
  20         0.00004884
  21        -0.00007907
  22         0.01327367
  23         0.01740900
  24         0.23977699
  25        -0.01844033
  26        -0.02417044
  27        -0.33270133
  28        -0.05140035
  29         0.33511968
  30         0.14980310
  31         0.00761168
  32         0.03286588
  33         0.00000234
  34         0.00000557
  35        -0.00007732
  36         0.01248044
  37         0.01635973
  38         0.22542116
  39        -0.01349792
  40        -0.01782903
  41        -0.24477133
  42         0.03273560
  43         0.00874621
  44        -0.26486799
  45         0.01975142
  46        -0.01416786
  47        -0.00002121
  48        -0.00008626
  49         0.00026949
  50        -0.01247064
  51        -0.01636949
  52        -0.22542119
  53         0.01356412
  54         0.01785863
  55         0.24476573
  56        -0.04046868
  57         0.09601858
  58         0.24585998
  59        -0.01259287
  60         0.02076233
  61         0.00001300
  62         0.00003962
  63        -0.00027358
  64        -0.01331376
  65        -0.01741891
  66        -0.23977377
  67         0.01844373
  68         0.02418072
  69         0.33270025
  70         0.00715951
  71         0.26531246
  72        -0.25872480
  73         0.03348926
  74         0.00491144
  75         0.00001853
  76         0.00001104
  77         0.01401840
  78         0.01838266
  79         0.25324894
  80        -0.00002208
  81        -0.00000780
  82         0.01156306
  83         0.01516836
  84         0.20889517
  85         0.00000145
  86         0.00000160
  87        -0.01156682
  88        -0.01517109
  89        -0.20889501
  90         0.00005341
  91        -0.00000066
  92        -0.01401941
  93        -0.01839598
  94        -0.25324774
Sym=    62a  
Ene=     1.3111
Spin= Alpha
Occup=    0.00000
   1         0.19122792
   2         1.38449528
   3         3.39095673
   4        -5.46366122
   5        -0.01539378
   6        -0.08826321
   7         0.00725972
   8        -0.08753744
   9        -0.50191326
  10         0.04128265
  11         0.34527696
  12         1.97970606
  13        -0.16282957
  14         0.69080729
  15         0.06466861
  16         0.09321936
  17         0.06306630
  18        -0.01858239
  19        -0.10421438
  20        -0.29567204
  21         2.10683488
  22        -0.46659589
  23         0.30600274
  24         0.00362213
  25         0.05250096
  26         0.02909807
  27        -0.00502901
  28         0.16127365
  29         0.02312232
  30         0.01780420
  31        -0.07307469
  32        -0.04767768
  33         0.03508450
  34         0.11237691
  35        -0.72961285
  36        -0.09907646
  37        -0.04566268
  38         0.00880955
  39        -0.25895028
  40         0.27409660
  41        -0.00558078
  42         0.16732706
  43         0.01430255
  44         0.01937181
  45        -0.00348784
  46         0.02828670
  47         0.03508542
  48         0.11238077
  49        -0.72962515
  50         0.07766420
  51        -0.07710651
  52         0.00128193
  53         0.33609711
  54         0.16823937
  55        -0.03079215
  56         0.16703698
  57         0.01855598
  58         0.02071245
  59        -0.02016715
  60        -0.01758182
  61        -0.10421489
  62        -0.29567416
  63         2.10684294
  64         0.54203980
  65         0.12656709
  66        -0.03919647
  67        -0.03949520
  68         0.04546396
  69        -0.00109815
  70         0.16210410
  71         0.01082341
  72         0.01397994
  73        -0.02473417
  74         0.08527450
  75         0.00697342
  76        -0.25549485
  77         0.05726432
  78         0.05946877
  79        -0.00747842
  80         0.54728205
  81        -0.08283312
  82        -0.01108398
  83        -0.02710873
  84         0.00258836
  85         0.54728333
  86        -0.08283345
  87         0.00124501
  88        -0.02930348
  89         0.00204610
  90         0.00697270
  91        -0.25549455
  92        -0.03369878
  93         0.07564939
  94        -0.00363619
Sym=    63a  
Ene=     1.3419
Spin= Alpha
Occup=    0.00000
   1         0.00000005
   2         0.00000035
   3         0.00000090
   4        -0.00000143
   5         0.04002995
   6        -0.00712132
   7        -0.00169904
   8         0.12490945
   9        -0.02222160
  10        -0.00530305
  11        -0.91801719
  12         0.16331516
  13         0.03896517
  14         0.00501883
  15        -0.07441567
  16        -0.02308766
  17         0.29246191
  18         0.80437487
  19         0.16865558
  20         0.96055927
  21         0.79894795
  22        -0.57928851
  23         0.25673695
  24         0.01343149
  25         0.23551573
  26        -0.04914026
  27        -0.00948288
  28        -0.07129395
  29        -0.01225228
  30        -0.01272576
  31         0.00368048
  32         0.07071400
  33         0.02500477
  34        -0.03349220
  35        -1.47524523
  36         0.13102060
  37        -0.10193764
  38         0.00014545
  39         0.64711220
  40        -2.09242238
  41         0.11607022
  42        -0.00656321
  43        -0.00849364
  44        -0.00757405
  45        -0.00603962
  46         0.11234486
  47        -0.02500486
  48         0.03349177
  49         1.47524625
  50         0.15762300
  51         0.05058834
  52        -0.01238947
  53         1.31606925
  54         1.74317121
  55        -0.19943594
  56         0.00778416
  57        -0.00952461
  58         0.00194266
  59         0.07681679
  60         0.08230762
  61        -0.16865564
  62        -0.96055947
  63        -0.79894781
  64        -0.63128194
  65        -0.04137729
  66         0.03795787
  67         0.23796459
  68        -0.03509482
  69        -0.01066260
  70         0.07209054
  71         0.00038988
  72         0.00907900
  73         0.04288327
  74         0.05736111
  75        -0.32243769
  76         0.12385960
  77         0.00877747
  78         0.10596059
  79        -0.00817623
  80        -0.91656854
  81        -0.20489752
  82        -0.08325649
  83         0.07635607
  84        -0.00092512
  85         0.91656789
  86         0.20489816
  87        -0.10407715
  88        -0.04302688
  89         0.00890915
  90         0.32243760
  91        -0.12385965
  92        -0.02759840
  93        -0.10261069
  94         0.00899612
Sym=    64a  
Ene=     1.4077
Spin= Alpha
Occup=    0.00000
   1         0.09302334
   2         0.65644933
   3         1.48448984
   4        -4.96889458
   5         0.01752041
   6         0.10045674
   7        -0.00826273
   8         0.11586838
   9         0.66435411
  10        -0.05464382
  11         0.24079129
  12         1.38061625
  13        -0.11354234
  14         0.03036412
  15        -0.00944741
  16         0.04391922
  17         0.43059876
  18        -0.15636369
  19        -0.39613955
  20        -1.59744216
  21         4.89891388
  22         0.16752178
  23        -0.14359465
  24         0.00114886
  25        -3.39649968
  26         0.01226595
  27         0.18713163
  28         0.03583281
  29        -0.00808870
  30         0.00308313
  31         0.06402520
  32         0.10959903
  33         0.19420838
  34         0.74148895
  35        -2.54118657
  36        -0.38201944
  37        -0.06120685
  38         0.02558331
  39         0.89401133
  40        -2.16360665
  41         0.10760361
  42        -0.03864679
  43        -0.01313555
  44         0.01296453
  45         0.21761212
  46        -0.03622211
  47         0.19420804
  48         0.74148759
  49        -2.54118183
  50         0.33831925
  51        -0.18935423
  52        -0.00498341
  53        -1.57218953
  54        -1.72487073
  55         0.21227118
  56        -0.03912659
  57        -0.00606767
  58         0.01517256
  59         0.18990265
  60        -0.11242932
  61        -0.39613926
  62        -1.59744097
  63         4.89891118
  64        -0.20601971
  65        -0.07714169
  66         0.01700052
  67         3.19622536
  68        -1.16057127
  69        -0.09265117
  70         0.03437381
  71         0.01359189
  72         0.00978286
  73        -0.02117473
  74        -0.12473848
  75         0.88521941
  76         0.35313723
  77         0.15314239
  78         0.07291791
  79        -0.01377636
  80        -0.65855320
  81        -0.31775243
  82         0.00657041
  83         0.10633532
  84        -0.00809148
  85        -0.65855295
  86        -0.31775236
  87         0.02979956
  88         0.10220258
  89        -0.00908007
  90         0.88521905
  91         0.35313726
  92        -0.11925571
  93         0.12137811
  94        -0.00220536
Sym=    65a  
Ene=     1.5197
Spin= Alpha
Occup=    0.00000
   1         0.00000358
   2         0.00002520
   3         0.00005665
   4        -0.00020066
   5        -0.00002128
   6         0.00000845
   7         0.00000053
   8        -0.00012194
   9         0.00005197
  10         0.00000285
  11         0.00008445
  12         0.00003957
  13        -0.00000684
  14        -0.04141246
  15         0.56211733
  16        -0.10196984
  17         0.03847740
  18         0.03534425
  19        -0.00007871
  20        -0.00031743
  21         0.00132666
  22        -0.00426861
  23        -0.00574043
  24        -0.07786384
  25        -0.01733205
  26        -0.02187954
  27        -0.29907234
  28         0.02086551
  29         0.33459664
  30        -0.41978673
  31         0.04904381
  32         0.00100502
  33         0.00011158
  34         0.00043558
  35        -0.00204037
  36        -0.00619002
  37        -0.00809298
  38        -0.11158070
  39         0.01598601
  40         0.01935730
  41         0.28093110
  42        -0.03946742
  43         0.19327577
  44         0.16401208
  45        -0.00124045
  46         0.02330965
  47        -0.00009022
  48        -0.00035311
  49         0.00178827
  50         0.00620135
  51         0.00806404
  52         0.11158201
  53        -0.01493814
  54        -0.01973488
  55        -0.28096103
  56         0.01585028
  57         0.12728444
  58        -0.22216404
  59         0.02321300
  60        -0.00309667
  61         0.00004376
  62         0.00018331
  63        -0.00087646
  64         0.00435627
  65         0.00570382
  66         0.07786158
  67         0.01615198
  68         0.02203660
  69         0.29912501
  70        -0.07894738
  71         0.45362723
  72         0.27679359
  73         0.00492765
  74         0.04865204
  75         0.00010067
  76         0.00012653
  77         0.01025264
  78         0.01340673
  79         0.18473769
  80        -0.00015776
  81        -0.00016690
  82        -0.01089701
  83        -0.01422435
  84        -0.19651719
  85         0.00006401
  86         0.00015624
  87         0.01085308
  88         0.01424990
  89         0.19651724
  90        -0.00006320
  91        -0.00007546
  92        -0.01020297
  93        -0.01340054
  94        -0.18473997
Sym=    66a  
Ene=     1.5346
Spin= Alpha
Occup=    0.00000
   1         0.00000011
   2         0.00000081
   3         0.00000193
   4        -0.00000199
   5        -0.13743194
   6         0.02444903
   7         0.00583440
   8        -0.79903938
   9         0.14214809
  10         0.03391619
  11         0.42370027
  12        -0.07537782
  13        -0.01801515
  14         0.00009126
  15        -0.00141215
  16        -0.00035574
  17         0.00520191
  18         0.01432842
  19        -0.38796172
  20        -1.56695308
  21         7.00744242
  22         0.19215073
  23        -0.47407651
  24         0.02380628
  25        -4.00453542
  26        -1.05057485
  27         0.29797543
  28        -0.05246202
  29        -0.03028178
  30        -0.01638629
  31         0.08203507
  32         0.28245440
  33         0.61623214
  34         2.38497399
  35       -12.02466675
  36         0.07822647
  37         0.06750736
  38        -0.00920251
  39         2.47277373
  40        -5.88357167
  41         0.29008599
  42         0.10511365
  43        -0.00544852
  44         0.00989954
  45         0.07478934
  46         0.15715453
  47        -0.61623218
  48        -2.38497418
  49        12.02467047
  50         0.05067785
  51        -0.09043773
  52         0.00375331
  53         4.31446975
  54         4.67610832
  55        -0.57840811
  56        -0.10307221
  57        -0.02464165
  58        -0.01929254
  59         0.04319373
  60         0.16732787
  61         0.38796201
  62         1.56695439
  63        -7.00744531
  64         0.34097446
  65         0.37923602
  66        -0.04641009
  67        -3.40809753
  68         2.36926888
  69         0.01653382
  70         0.05590746
  71        -0.02094009
  72         0.00063872
  73         0.11873987
  74         0.26978592
  75         0.52213428
  76         0.64833538
  77         0.13640807
  78        -0.04840790
  79        -0.00406850
  80        -0.71256889
  81        -1.02706838
  82        -0.10325640
  83         0.21998629
  84        -0.01018608
  85         0.71256840
  86         1.02706946
  87        -0.17146916
  88        -0.17110747
  89         0.02191275
  90        -0.52213540
  91        -0.64833649
  92         0.14457857
  93        -0.00157906
  94        -0.00785268
Sym=    67a  
Ene=     1.5850
Spin= Alpha
Occup=    0.00000
   1         0.00000169
   2         0.00001202
   3         0.00002810
   4        -0.00008313
   5         0.00081518
   6         0.00105909
   7         0.01458853
   8        -0.00153639
   9        -0.00207196
  10        -0.02856351
  11        -0.02773270
  12        -0.03631551
  13        -0.50063250
  14        -0.07619550
  15         0.09085703
  16         0.53170828
  17        -0.03366019
  18         0.03637677
  19         0.00001748
  20         0.00007141
  21        -0.00032866
  22         0.00426418
  23         0.00561920
  24         0.07713904
  25         0.02721029
  26         0.03553021
  27         0.48839499
  28        -0.00659179
  29        -0.35429599
  30         0.32216279
  31        -0.04300375
  32        -0.00787102
  33        -0.00002694
  34        -0.00010147
  35         0.00059380
  36         0.00108991
  37         0.00144164
  38         0.01996677
  39        -0.01491645
  40        -0.01914373
  41        -0.26779957
  42         0.02907806
  43        -0.07599478
  44        -0.17145187
  45         0.00827121
  46        -0.01515411
  47         0.00003024
  48         0.00011423
  49        -0.00065459
  50         0.00110185
  51         0.00144522
  52         0.01996611
  53        -0.01506494
  54        -0.01973563
  55        -0.26774891
  56         0.02241894
  57         0.01459462
  58        -0.18788398
  59         0.01447561
  60        -0.00944456
  61        -0.00003151
  62        -0.00012524
  63         0.00048529
  64         0.00424343
  65         0.00558239
  66         0.07714318
  67         0.02727018
  68         0.03529537
  69         0.48840934
  70        -0.06510399
  71         0.43978453
  72         0.17811206
  73         0.01132159
  74         0.04206634
  75        -0.00003086
  76        -0.00002244
  77        -0.01932570
  78        -0.02533104
  79        -0.34898213
  80         0.00001604
  81         0.00006193
  82         0.01276955
  83         0.01673679
  84         0.23064730
  85        -0.00006949
  86        -0.00005186
  87         0.01277900
  88         0.01675908
  89         0.23064558
  90         0.00002929
  91         0.00005144
  92        -0.01932238
  93        -0.02533130
  94        -0.34898260
Sym=    68a  
Ene=     1.6290
Spin= Alpha
Occup=    0.00000
   1        -0.09299400
   2        -0.67048160
   3        -1.60277898
   4         2.89450347
   5         0.00371259
   6         0.02128729
   7        -0.00175052
   8         0.00573971
   9         0.03291381
  10        -0.00270702
  11        -0.15246042
  12        -0.87415457
  13         0.07188511
  14        -0.37521401
  15        -0.02829417
  16        -0.07275262
  17        -0.27195932
  18         0.09651709
  19         0.07041636
  20         0.17341843
  21        -0.73186522
  22         0.00905090
  23        -0.06469323
  24         0.00419480
  25         0.10415176
  26        -0.43476181
  27         0.02581126
  28         0.23109779
  29         0.03760470
  30         0.00578096
  31        -0.30595885
  32         0.02237460
  33         0.12424234
  34         0.47865403
  35        -0.92798387
  36         0.04234211
  37         0.27476317
  38        -0.02229806
  39        -0.36667575
  40        -0.13651871
  41         0.03018813
  42         0.25086220
  43        -0.00532912
  44         0.04303112
  45         0.29462042
  46         0.18243471
  47         0.12424188
  48         0.47865231
  49        -0.92797344
  50         0.05316412
  51         0.27283944
  52        -0.02274317
  53         0.29842567
  54        -0.25483143
  55         0.00198986
  56         0.24768681
  57         0.04174171
  58         0.05763734
  59         0.10965796
  60        -0.32627796
  61         0.07041644
  62         0.17341844
  63        -0.73187078
  64        -0.03039328
  65        -0.05767562
  66         0.00587025
  67        -0.24497433
  68        -0.37265281
  69         0.04062159
  70         0.23208867
  71         0.02285630
  72         0.00122929
  73        -0.24795011
  74         0.18192501
  75         0.67109020
  76        -0.36582367
  77         0.09254728
  78        -0.03307996
  79        -0.00273316
  80         0.88691945
  81        -0.51469463
  82         0.11391273
  83        -0.12528181
  84         0.00279628
  85         0.88692116
  86        -0.51469349
  87        -0.14944155
  88        -0.07843139
  89         0.01397473
  90         0.67108925
  91        -0.36582407
  92        -0.09816890
  93         0.00084906
  94         0.00537282
Sym=    69a  
Ene=     1.7404
Spin= Alpha
Occup=    0.00000
   1         0.00000283
   2         0.00001983
   3         0.00004283
   4        -0.00010804
   5         0.00000190
   6         0.00000122
   7        -0.00000020
   8         0.00001296
   9         0.00001024
  10        -0.00000151
  11        -0.00000360
  12         0.00003726
  13        -0.00000240
  14        -0.00456015
  15         0.06207043
  16        -0.01125758
  17         0.00425028
  18         0.00390020
  19        -0.00000637
  20        -0.00001991
  21         0.00007853
  22         0.00255279
  23         0.00335809
  24         0.04623554
  25         0.02231046
  26         0.02925554
  27         0.40311988
  28         0.05084914
  29        -0.04119664
  30        -0.36975729
  31         0.02462573
  32        -0.02369598
  33         0.00000277
  34         0.00001178
  35         0.00003467
  36        -0.01329385
  37        -0.01740889
  38        -0.23970404
  39        -0.04083649
  40        -0.05349688
  41        -0.73717778
  42        -0.00618188
  43         0.36732459
  44        -0.23154079
  45         0.03713983
  46         0.01386782
  47         0.00001807
  48         0.00006784
  49        -0.00026725
  50         0.01328302
  51         0.01739085
  52         0.23970604
  53         0.04074527
  54         0.05341498
  55         0.73718890
  56        -0.05202782
  57         0.42198470
  58         0.08834957
  59         0.01688639
  60         0.03577340
  61        -0.00001216
  62        -0.00004053
  63         0.00023709
  64        -0.00255457
  65        -0.00336734
  66        -0.04623509
  67        -0.02224508
  68        -0.02934648
  69        -0.40311720
  70        -0.05403736
  71         0.08384524
  72         0.36201401
  73        -0.02171961
  74         0.02637186
  75        -0.00001796
  76         0.00000680
  77        -0.01649984
  78        -0.02162268
  79        -0.29805054
  80        -0.00001135
  81         0.00001420
  82         0.02426790
  83         0.03182706
  84         0.43834640
  85        -0.00002535
  86        -0.00001165
  87        -0.02426180
  88        -0.03181574
  89        -0.43834698
  90        -0.00000772
  91         0.00002210
  92         0.01650109
  93         0.02165380
  94         0.29804885
Sym=    70a  
Ene=     1.7520
Spin= Alpha
Occup=    0.00000
   1         0.05943216
   2         0.40785191
   3         0.77675366
   4        -2.51773862
   5         0.01106716
   6         0.06345523
   7        -0.00521888
   8         0.09689253
   9         0.55554862
  10        -0.04569078
  11         0.06128026
  12         0.35136231
  13        -0.02889740
  14         0.32427954
  15         0.03126224
  16         0.04079689
  17        -0.00217953
  18         0.00283230
  19         0.04908776
  20         0.32375999
  21         0.80145996
  22        -0.23944588
  23        -0.14270054
  24         0.02361085
  25        -0.07251420
  26         0.85268956
  27        -0.05788637
  28        -0.06127019
  29         0.01801552
  30         0.01396866
  31         0.02954697
  32        -0.35007037
  33        -0.03931394
  34        -0.20835672
  35         0.11166539
  36         0.29587569
  37         0.01101422
  38        -0.01718626
  39        -0.56203853
  40        -0.22387027
  41         0.04736211
  42        -0.02449247
  43         0.00570413
  44         0.02709803
  45         0.20882700
  46        -0.26827970
  47        -0.03931390
  48        -0.20835654
  49         0.11166441
  50        -0.27434167
  51         0.11245592
  52         0.00702355
  53         0.45247119
  54        -0.40435024
  55         0.00430836
  56        -0.02237230
  57        -0.02570865
  58         0.01733977
  59         0.33227970
  60         0.07125654
  61         0.04908783
  62         0.32376032
  63         0.80146007
  64         0.17675711
  65        -0.21674079
  66         0.00596553
  67         0.35663140
  68         0.77634496
  69        -0.07609681
  70        -0.05753201
  71        -0.03738444
  72        -0.00323030
  73         0.24724965
  74         0.24868778
  75        -0.15817044
  76         0.05346860
  77         0.07366832
  78        -0.30093058
  79         0.01776851
  80        -0.09730204
  81         0.08237573
  82         0.34162101
  83         0.18271577
  84        -0.03217178
  85        -0.09730200
  86         0.08237562
  87        -0.25924399
  88         0.28960821
  89        -0.00667995
  90        -0.15817031
  91         0.05346844
  92        -0.17104564
  93        -0.25739680
  94         0.02814488
Sym=    71a  
Ene=     1.8186
Spin= Alpha
Occup=    0.00000
   1        -0.02641340
   2        -0.18063311
   3        -0.34053974
   4         0.35463208
   5        -0.00042291
   6        -0.00242497
   7         0.00019872
   8        -0.01808941
   9        -0.10372012
  10         0.00852424
  11        -0.04070831
  12        -0.23341975
  13         0.01921051
  14        -0.23547564
  15        -0.02010710
  16        -0.03805907
  17        -0.08899610
  18         0.03087384
  19         0.14319392
  20         0.52310697
  21        -0.88110167
  22         0.01768279
  23        -0.22896608
  24         0.01563640
  25        -0.33632216
  26         0.70917478
  27        -0.03285488
  28         0.30341320
  29         0.01288855
  30         0.05184365
  31         0.22567031
  32         0.05453033
  33         0.33006956
  34         1.40883392
  35        -0.47842148
  36        -0.26019655
  37         0.33946469
  38        -0.01022697
  39         1.02115523
  40        -0.87736229
  41         0.00715250
  42         0.35403343
  43         0.05333849
  44         0.03831489
  45        -0.18437821
  46        -0.12209960
  47         0.33007010
  48         1.40883651
  49        -0.47842006
  50         0.35938345
  51         0.22924117
  52        -0.03654676
  53        -1.25652307
  54        -0.47216758
  55         0.10385949
  56         0.35614341
  57         0.02205088
  58         0.02861700
  59        -0.06146697
  60         0.21595089
  61         0.14319405
  62         0.52310766
  63        -0.88109864
  64        -0.09408168
  65        -0.20908276
  66         0.02038818
  67         0.55600605
  68         0.55043134
  69        -0.07076899
  70         0.30192569
  71         0.03490568
  72         0.05868907
  73         0.13917395
  74        -0.18336559
  75         0.15027303
  76         0.10864175
  77         0.00339461
  78        -0.35878773
  79         0.02585505
  80        -0.56299309
  81        -0.01073070
  82        -0.17758100
  83         0.00490370
  84         0.00949165
  85        -0.56299508
  86        -0.01073082
  87         0.16855046
  88        -0.05667511
  89        -0.00523722
  90         0.15027061
  91         0.10864265
  92        -0.12457458
  93        -0.33602175
  94         0.03131301
Sym=    72a  
Ene=     1.8360
Spin= Alpha
Occup=    0.00000
   1         0.00000004
   2         0.00000028
   3         0.00000043
   4        -0.00000102
   5         0.03201188
   6        -0.00569483
   7        -0.00135852
   8         0.29838864
   9        -0.05308245
  10        -0.01266258
  11         0.82701882
  12        -0.14712530
  13        -0.03509912
  14        -0.00240474
  15         0.03566868
  16         0.01106238
  17        -0.14017351
  18        -0.38552943
  19        -0.04725588
  20        -0.25109514
  21        -0.54907268
  22         0.16760594
  23         0.03471865
  24        -0.01179616
  25        -0.46077850
  26        -1.20554747
  27         0.11303270
  28         0.04869845
  29        -0.00582794
  30        -0.02269711
  31        -0.18072292
  32         0.28088906
  33        -0.09703944
  34        -0.48749578
  35        -0.93709571
  36        -0.09055591
  37        -0.29482534
  38         0.02640978
  39         0.49500937
  40         0.87093035
  41        -0.09064430
  42        -0.04666824
  43        -0.01086090
  44        -0.01962406
  45        -0.07680948
  46         0.14502174
  47         0.09703822
  48         0.48749057
  49         0.93709794
  50         0.01463766
  51         0.30832870
  52        -0.02320338
  53         0.17056750
  54        -0.98933662
  55         0.06235950
  56         0.04796226
  57        -0.00832193
  58         0.01365782
  59         0.15221009
  60         0.06235181
  61         0.04725538
  62         0.25109344
  63         0.54907638
  64         0.14577313
  65        -0.09046658
  66        -0.00149436
  67        -0.02518738
  68         1.29199997
  69        -0.09238849
  70        -0.04632973
  71        -0.02928847
  72         0.01178907
  73         0.31873900
  74         0.09870327
  75         0.55835807
  76        -0.17205317
  77         0.00826406
  78         0.50556570
  79        -0.03716354
  80         0.48485625
  81        -0.09558285
  82        -0.31799625
  83        -0.14784346
  84         0.02833731
  85        -0.48485459
  86         0.09558293
  87        -0.24883952
  88         0.24868331
  89        -0.00427838
  90        -0.55835900
  91         0.17205281
  92        -0.16327553
  93        -0.47798841
  94         0.04373644
Sym=    73a  
Ene=     1.8689
Spin= Alpha
Occup=    0.00000
   1        -0.00000091
   2        -0.00000629
   3        -0.00001273
   4         0.00006056
   5        -0.00055012
   6        -0.00072207
   7        -0.00992443
   8        -0.00742494
   9        -0.00973093
  10        -0.13391638
  11         0.00596541
  12         0.00778656
  13         0.10743330
  14        -0.02138349
  15         0.02549489
  16         0.14920739
  17        -0.00944283
  18         0.01021990
  19         0.00000329
  20         0.00001713
  21        -0.00011904
  22        -0.01402010
  23        -0.01835944
  24        -0.25328414
  25        -0.00793454
  26        -0.01055520
  27        -0.14478510
  28        -0.04894740
  29        -0.13029826
  30         0.48539071
  31        -0.04253190
  32         0.01762678
  33        -0.00001782
  34        -0.00006057
  35         0.00030390
  36         0.00357145
  37         0.00471830
  38         0.06519774
  39         0.00579596
  40         0.00797995
  41         0.10737104
  42        -0.08411158
  43         0.21811883
  44         0.49690279
  45        -0.02407272
  46         0.04373888
  47         0.00000695
  48         0.00001178
  49        -0.00029647
  50         0.00356013
  51         0.00475872
  52         0.06519503
  53         0.00581933
  54         0.00767306
  55         0.10739125
  56        -0.06506121
  57        -0.04029757
  58         0.54377756
  59        -0.04180926
  60         0.02750614
  61         0.00000636
  62         0.00002449
  63         0.00006599
  64        -0.01402504
  65        -0.01843018
  66        -0.25327874
  67        -0.00799395
  68        -0.01051741
  69        -0.14478397
  70        -0.07943163
  71         0.28336141
  72         0.41035102
  73        -0.01420688
  74         0.04363339
  75         0.00000950
  76        -0.00002768
  77         0.02470913
  78         0.03240757
  79         0.44618238
  80         0.00006954
  81         0.00001870
  82         0.01842785
  83         0.02412376
  84         0.33236499
  85        -0.00005677
  86        -0.00001004
  87         0.01840591
  88         0.02415009
  89         0.33236487
  90        -0.00002164
  91         0.00002005
  92         0.02470911
  93         0.03239214
  94         0.44618295
Sym=    74a  
Ene=     1.9204
Spin= Alpha
Occup=    0.00000
   1         0.08138459
   2         0.54787816
   3         0.97056479
   4        -4.11593757
   5         0.02306314
   6         0.13223744
   7        -0.01087598
   8         0.17482864
   9         1.00241826
  10        -0.08244283
  11         0.10523134
  12         0.60336593
  13        -0.04961927
  14         0.45903447
  15         0.04699458
  16         0.04886121
  17        -0.09855229
  18         0.03871973
  19        -0.21969238
  20        -0.85230979
  21         1.49207980
  22         0.04844253
  23         0.32641564
  24        -0.02637850
  25        -1.10909087
  26         1.21661287
  27        -0.02692190
  28        -0.32789325
  29         0.00772265
  30        -0.03028253
  31        -0.16417922
  32        -0.41576943
  33         0.00900595
  34         0.10116471
  35         0.75992880
  36        -0.02446127
  37         0.04539212
  38        -0.00196548
  39         0.96863202
  40        -0.10497733
  41        -0.04597726
  42        -0.04872231
  43        -0.01213406
  44        -0.00629599
  45         0.04815848
  46         0.06494020
  47         0.00900582
  48         0.10116392
  49         0.75993022
  50         0.03834326
  51         0.03422054
  52        -0.00462616
  53        -0.94584519
  54         0.23559649
  55         0.03522759
  56        -0.04963809
  57         0.00143718
  58        -0.00210625
  59        -0.00499317
  60        -0.08125087
  61        -0.21969222
  62        -0.85230946
  63         1.49208249
  64         0.06490548
  65         0.32348564
  66        -0.02708205
  67         1.45393752
  68         0.76064905
  69        -0.13569703
  70        -0.32267811
  71        -0.06962449
  72        -0.05427504
  73         0.13988232
  74         0.42050731
  75         0.23898459
  76         0.05443670
  77         0.07117574
  78        -0.25211910
  79         0.01437705
  80        -0.28344888
  81         0.00154953
  82        -0.42972947
  83        -0.28320480
  84         0.04438381
  85        -0.28345038
  86         0.00155012
  87         0.30805546
  88        -0.41445381
  89         0.01308383
  90         0.23898167
  91         0.05443732
  92        -0.15218623
  93        -0.21238215
  94         0.02386030
Sym=    75a  
Ene=     1.9358
Spin= Alpha
Occup=    0.00000
   1        -0.00000407
   2        -0.00002694
   3        -0.00004343
   4         0.00020884
   5         0.00028591
   6         0.00032731
   7         0.00468615
   8         0.00491397
   9         0.00603509
  10         0.08455831
  11        -0.00102751
  12        -0.00124035
  13        -0.01694416
  14         0.01015539
  15        -0.01213484
  16        -0.07107155
  17         0.00445820
  18        -0.00500533
  19        -0.00001126
  20        -0.00009160
  21        -0.00008609
  22         0.00234488
  23         0.00298337
  24         0.04225794
  25         0.00570130
  26         0.00714343
  27         0.09913437
  28         0.08297412
  29        -0.20458331
  30        -0.49811223
  31         0.02513734
  32        -0.04271987
  33        -0.00002188
  34        -0.00013719
  35        -0.00010506
  36        -0.02206487
  37        -0.02919550
  38        -0.40291701
  39        -0.00233704
  40        -0.00312605
  41        -0.04193429
  42         0.03606357
  43        -0.40543514
  44         0.02499181
  45        -0.02434362
  46        -0.02823824
  47         0.00002131
  48         0.00012917
  49         0.00004164
  50        -0.02208750
  51        -0.02939199
  52        -0.40290127
  53        -0.00224229
  54        -0.00298734
  55        -0.04194970
  56        -0.02255338
  57         0.38935097
  58        -0.11917817
  59         0.03025882
  60         0.02169209
  61         0.00003564
  62         0.00018393
  63        -0.00009183
  64         0.00236010
  65         0.00311135
  66         0.04224842
  67         0.00557522
  68         0.00709567
  69         0.09914478
  70         0.06588856
  71         0.02714777
  72        -0.54017365
  73         0.04069638
  74        -0.02808838
  75        -0.00023268
  76         0.00010804
  77         0.01035652
  78         0.01376767
  79         0.18928375
  80        -0.00008399
  81         0.00004503
  82         0.03182805
  83         0.04186774
  84         0.57570729
  85         0.00009546
  86        -0.00004110
  87         0.03177851
  88         0.04178898
  89         0.57571475
  90         0.00022613
  91        -0.00011678
  92         0.01036726
  93         0.01377804
  94         0.18928065
Sym=    76a  
Ene=     1.9459
Spin= Alpha
Occup=    0.00000
   1         0.00000002
   2         0.00000005
   3        -0.00000042
   4        -0.00000276
   5         0.07148453
   6        -0.01271696
   7        -0.00303610
   8         0.62684506
   9        -0.11151637
  10        -0.02664112
  11        -0.22575349
  12         0.04016232
  13         0.00959450
  14        -0.00206758
  15         0.03060717
  16         0.00952398
  17        -0.12027515
  18        -0.33079212
  19        -0.09302596
  20        -0.49407517
  21        -0.11278600
  22         0.04298308
  23        -0.10322797
  24         0.00508012
  25         0.49812522
  26         0.01664314
  27        -0.02882513
  28         0.00842075
  29        -0.03503177
  30         0.03150548
  31         0.50171596
  32         0.11235731
  33        -0.12835647
  34        -0.59794084
  35         0.89317435
  36         0.57164789
  37         0.16529769
  38        -0.04349803
  39        -0.27449522
  40         0.13363233
  41         0.00552039
  42        -0.02246949
  43         0.01969070
  44        -0.01840831
  45        -0.27980386
  46        -0.08523306
  47         0.12835657
  48         0.59794106
  49        -0.89317415
  50         0.48132396
  51        -0.35259595
  52        -0.00089173
  53        -0.30318618
  54        -0.03085910
  55         0.01905214
  56         0.02039378
  57         0.01087627
  58         0.02799081
  59         0.15979322
  60        -0.24481644
  61         0.09302583
  62         0.49407482
  63         0.11278839
  64         0.07532031
  65         0.08217711
  66        -0.01015905
  67         0.46251644
  68        -0.18754520
  69        -0.01202712
  70        -0.00523492
  71        -0.01307525
  72        -0.04600718
  73        -0.31245988
  74         0.40827572
  75        -0.60435209
  76         0.29803802
  77        -0.32841198
  78         0.08433861
  79         0.01200981
  80        -0.27309467
  81         0.24591323
  82        -0.17356023
  83         0.14334370
  84        -0.00098884
  85         0.27309448
  86        -0.24591353
  87        -0.21161437
  88        -0.07485447
  89         0.01695181
  90         0.60435364
  91        -0.29803816
  92        -0.33718212
  93         0.03406038
  94         0.01612482
Sym=    77a  
Ene=     2.0061
Spin= Alpha
Occup=    0.00000
   1         0.00000273
   2         0.00002001
   3         0.00004984
   4        -0.00007790
   5         0.00000180
   6        -0.00000222
   7         0.00000007
   8         0.00001565
   9        -0.00001264
  10         0.00000018
  11         0.00000910
  12         0.00001949
  13        -0.00000193
  14         0.00016338
  15        -0.00215929
  16         0.00039318
  17        -0.00014879
  18        -0.00015077
  19        -0.00000703
  20        -0.00003915
  21        -0.00003226
  22         0.01304444
  23         0.01712314
  24         0.23538861
  25        -0.00166361
  26        -0.00220356
  27        -0.03056489
  28        -0.05320920
  29         0.47836790
  30         0.05501882
  31         0.02244218
  32         0.03802391
  33        -0.00000229
  34        -0.00000194
  35         0.00006338
  36         0.01028020
  37         0.01346029
  38         0.18507167
  39         0.00035210
  40         0.00047807
  41         0.00646681
  42         0.03013540
  43         0.05129594
  44        -0.27690954
  45         0.02296322
  46        -0.01171187
  47        -0.00000608
  48        -0.00001102
  49         0.00014901
  50        -0.01025313
  51        -0.01341036
  52        -0.18507804
  53        -0.00035375
  54        -0.00039708
  55        -0.00647260
  56        -0.04427673
  57         0.14000269
  58         0.24219629
  59        -0.00992149
  60         0.02375708
  61        -0.00000827
  62        -0.00004009
  63        -0.00006906
  64        -0.01302897
  65        -0.01703728
  66        -0.23539579
  67         0.00169482
  68         0.00227833
  69         0.03055802
  70        -0.01379159
  71         0.43136625
  72        -0.22004539
  73         0.03985426
  74         0.01920751
  75        -0.00001334
  76        -0.00000049
  77        -0.03533168
  78        -0.04634512
  79        -0.63808700
  80        -0.00000396
  81         0.00000506
  82        -0.02302508
  83        -0.03021958
  84        -0.41635539
  85        -0.00000054
  86         0.00001461
  87         0.02302916
  88         0.03023490
  89         0.41635578
  90         0.00000251
  91        -0.00000734
  92         0.03531355
  93         0.04630521
  94         0.63809159
Sym=    78a  
Ene=     2.0211
Spin= Alpha
Occup=    0.00000
   1         0.00000005
   2         0.00000031
   3         0.00000034
   4        -0.00000352
   5         0.11430806
   6        -0.02033510
   7        -0.00485155
   8         0.85536767
   9        -0.15216777
  10        -0.03630442
  11         0.86055371
  12        -0.15308967
  13        -0.03650354
  14        -0.00389787
  15         0.05781469
  16         0.01793096
  17        -0.22721960
  18        -0.62493742
  19         0.29434790
  20         1.16133735
  21         0.02026150
  22        -0.17447835
  23        -0.38035145
  24         0.03726933
  25         1.06343270
  26        -1.80164085
  27         0.07188642
  28         0.42093670
  29         0.01272627
  30         0.03752381
  31         0.04836348
  32         0.34656027
  33         0.09780192
  34         0.36342418
  35        -0.24923802
  36        -0.10816537
  37         0.01104793
  38         0.00518624
  39        -2.25912622
  40        -1.68127456
  41         0.24715904
  42         0.15462517
  43         0.01862991
  44         0.03088189
  45         0.07343108
  46        -0.10590860
  47        -0.09780182
  48        -0.36342363
  49         0.24923983
  50        -0.10539242
  51         0.02694492
  52         0.00388844
  53        -1.55435260
  54         2.35969322
  55        -0.08526187
  56        -0.15550963
  57        -0.00551418
  58        -0.02681942
  59        -0.12493245
  60        -0.03574084
  61        -0.29434830
  62        -1.16133878
  63        -0.02025935
  64        -0.03529643
  65         0.41767125
  66        -0.02836542
  67         1.60895855
  68         1.32622089
  69        -0.18538506
  70        -0.41695927
  71        -0.07180707
  72        -0.05580318
  73         0.18381959
  74         0.29203986
  75        -0.25006817
  76        -0.23214194
  77         0.03882076
  78         0.27498775
  79        -0.02211224
  80        -0.20032049
  81        -0.11997184
  82         0.47853311
  83         0.22485243
  84        -0.04281929
  85         0.20032019
  86         0.11997194
  87         0.37366039
  88        -0.37645837
  89         0.00664104
  90         0.25006814
  91         0.23214208
  92        -0.05655055
  93        -0.27183526
  94         0.02285046
Sym=    79a  
Ene=     2.0802
Spin= Alpha
Occup=    0.00000
   1         0.04896375
   2         0.35886933
   3         0.89718556
   4        -1.58904670
   5        -0.00431309
   6        -0.02472929
   7         0.00203375
   8        -0.02502414
   9        -0.14347756
  10         0.01179841
  11         0.07946003
  12         0.45559183
  13        -0.03746935
  14         0.04607444
  15         0.00286088
  16         0.01098633
  17         0.05543844
  18        -0.01986384
  19        -0.22189102
  20        -1.04043766
  21         0.02651174
  22         0.26794485
  23         0.73368908
  24        -0.06809001
  25        -0.00668447
  26         0.39165376
  27        -0.02805641
  28         0.18207421
  29         0.00089536
  30         0.04210707
  31         0.27668840
  32         0.01892606
  33         0.00494387
  34         0.19561043
  35         1.05732582
  36         0.41284946
  37         0.31233674
  38        -0.04554325
  39         0.14374531
  40         0.39825091
  41        -0.03686796
  42        -0.33675693
  43        -0.06810461
  44        -0.08681146
  45        -0.14707175
  46         0.59716919
  47         0.00494417
  48         0.19561080
  49         1.05731978
  50        -0.28233474
  51         0.43601115
  52        -0.01601796
  53        -0.00036908
  54         0.42389538
  55        -0.03075909
  56        -0.34277317
  57         0.02111916
  58        -0.05913274
  59        -0.49765376
  60        -0.36705082
  61        -0.22188949
  62        -1.04043167
  63         0.02649539
  64        -0.00359826
  65         0.78199450
  66        -0.05659039
  67         0.13878537
  68         0.36578153
  69        -0.03424328
  70         0.18075321
  71         0.02026910
  72         0.04823168
  73         0.20064322
  74        -0.19019148
  75        -0.07508976
  76         0.04308051
  77        -0.10820420
  78        -0.39342331
  79         0.03459008
  80         0.02391781
  81         0.02172649
  82         0.29141792
  83        -0.05715929
  84        -0.01195553
  85         0.02391900
  86         0.02172538
  87        -0.29321678
  88         0.04684156
  89         0.01280437
  90        -0.07508728
  91         0.04307759
  92        -0.03141354
  93        -0.40709225
  94         0.03125861
Sym=    80a  
Ene=     2.0950
Spin= Alpha
Occup=    0.00000
   1         0.00000011
   2         0.00000080
   3         0.00000210
   4        -0.00000328
   5         0.05948936
   6        -0.01058312
   7        -0.00252427
   8         0.37998185
   9        -0.06759887
  10        -0.01612683
  11        -0.46045419
  12         0.08191384
  13         0.01952337
  14        -0.00157204
  15         0.02329205
  16         0.00723487
  17        -0.09153235
  18        -0.25174519
  19         0.28255369
  20         1.05409379
  21        -3.19058774
  22        -0.00435164
  23         0.00153590
  24         0.00011115
  25         0.70222378
  26         1.35857561
  27        -0.13747464
  28         0.38119697
  29         0.02602955
  30         0.02809394
  31        -0.10414228
  32         0.22698027
  33         0.02460187
  34        -0.10797922
  35        -1.19418184
  36         0.83230160
  37        -0.04091115
  38        -0.04310319
  39         2.54891538
  40         0.80822928
  41        -0.19981154
  42         0.47237349
  43         0.05473866
  44         0.00384907
  45        -0.54704962
  46         0.29053791
  47        -0.02460198
  48         0.10797963
  49         1.19418657
  50         0.79604811
  51        -0.24876863
  52        -0.02600222
  53         2.12206666
  54        -1.63919416
  55         0.00151956
  56        -0.47140428
  57        -0.06919754
  58        -0.00832030
  59         0.60399818
  60        -0.13389934
  61        -0.28255460
  62        -1.05409812
  63         3.19058744
  64        -0.00460960
  65         0.00006002
  66         0.00024320
  67         0.20032931
  68        -1.51913181
  69         0.09923908
  70        -0.37914418
  71        -0.05654329
  72        -0.03751244
  73         0.22406782
  74         0.10286789
  75         0.36298527
  76        -0.44843904
  77         0.08382596
  78        -0.43138939
  79         0.02667829
  80         0.16862348
  81        -0.25723736
  82        -0.19289369
  83        -0.10640233
  84         0.01838603
  85        -0.16862333
  86         0.25723771
  87        -0.14528822
  88         0.16656201
  89        -0.00406705
  90        -0.36298539
  91         0.44843892
  92         0.22472725
  93         0.37649562
  94        -0.03978130
Sym=    81a  
Ene=     2.2136
Spin= Alpha
Occup=    0.00000
   1         0.00000134
   2         0.00000910
   3         0.00001770
   4        -0.00007996
   5         0.00056999
   6         0.00075597
   7         0.01035781
   8         0.00670297
   9         0.00885124
  10         0.12153426
  11        -0.00209216
  12        -0.00271492
  13        -0.03772304
  14         0.02797026
  15        -0.03334372
  16        -0.19511959
  17         0.01237240
  18        -0.01334163
  19        -0.00003362
  20        -0.00012310
  21         0.00032743
  22        -0.00109327
  23        -0.00140590
  24        -0.01912273
  25        -0.00000580
  26         0.00011577
  27         0.00214156
  28        -0.08885804
  29         0.70359791
  30         0.16386314
  31         0.02694062
  32         0.06058663
  33         0.00000945
  34         0.00003051
  35        -0.00022721
  36         0.00195655
  37         0.00253535
  38         0.03576003
  39         0.00011667
  40         0.00009727
  41         0.00200650
  42        -0.06104231
  43        -0.03635696
  44         0.50941656
  45        -0.03906717
  46         0.02584987
  47         0.00003096
  48         0.00012036
  49        -0.00020618
  50         0.00198712
  51         0.00259690
  52         0.03575406
  53         0.00012324
  54         0.00002906
  55         0.00201042
  56        -0.07869261
  57         0.20304199
  58         0.46598264
  59        -0.02266135
  60         0.04089473
  61         0.00000052
  62         0.00000264
  63         0.00014722
  64        -0.00101593
  65        -0.00143536
  66        -0.01912172
  67         0.00008670
  68         0.00010995
  69         0.00213735
  70         0.00774170
  71        -0.60697846
  72         0.40161127
  73        -0.06272734
  74        -0.02190071
  75        -0.00000947
  76         0.00005363
  77        -0.03172394
  78        -0.04158106
  79        -0.57261865
  80         0.00002754
  81        -0.00004194
  82         0.02055184
  83         0.02690684
  84         0.37082806
  85         0.00001070
  86        -0.00003220
  87         0.02052212
  88         0.02691522
  89         0.37083018
  90        -0.00004036
  91         0.00003050
  92        -0.03166471
  93        -0.04157167
  94        -0.57262291
Sym=    82a  
Ene=     2.2227
Spin= Alpha
Occup=    0.00000
   1        -0.00002102
   2        -0.00014353
   3        -0.00028088
   4         0.00120436
   5        -0.00000632
   6        -0.00004337
   7         0.00000356
   8        -0.00004263
   9        -0.00030243
  10         0.00002505
  11        -0.00005147
  12        -0.00031749
  13         0.00002567
  14        -0.01381843
  15         0.18644678
  16        -0.03384660
  17         0.01262542
  18         0.01176657
  19         0.00020363
  20         0.00076001
  21        -0.00249999
  22         0.01254165
  23         0.01615405
  24         0.22043340
  25         0.00273937
  26         0.00294949
  27         0.03551795
  28         0.07973801
  29        -0.07896099
  30        -0.56635986
  31         0.03672002
  32        -0.03758840
  33        -0.00018374
  34        -0.00070314
  35         0.00192645
  36         0.00202434
  37         0.00266065
  38         0.03277036
  39        -0.00229760
  40        -0.00242732
  41        -0.04363637
  42         0.12279076
  43        -0.94877135
  44        -0.24689766
  45        -0.03459742
  46        -0.08310609
  47        -0.00018242
  48        -0.00067788
  49         0.00211369
  50        -0.00185956
  51        -0.00201818
  52        -0.03282541
  53         0.00258811
  54         0.00390954
  55         0.04351265
  56         0.00624888
  57        -0.80990506
  58         0.56583963
  59        -0.08600915
  60        -0.02743147
  61         0.00020548
  62         0.00076501
  63        -0.00255971
  64        -0.01248360
  65        -0.01572072
  66        -0.22046849
  67        -0.00256348
  68        -0.00193858
  69        -0.03560099
  70        -0.08171315
  71         0.11349636
  72         0.56016845
  73        -0.03448257
  74         0.03982426
  75         0.00015602
  76        -0.00040488
  77        -0.00129739
  78        -0.00198227
  79        -0.02752234
  80        -0.00012556
  81         0.00033601
  82         0.00607888
  83         0.00825433
  84         0.11213684
  85        -0.00014428
  86         0.00036268
  87        -0.00603690
  88        -0.00807273
  89        -0.11214757
  90         0.00015319
  91        -0.00040791
  92         0.00130388
  93         0.00209516
  94         0.02750611
Sym=    83a  
Ene=     2.2254
Spin= Alpha
Occup=    0.00000
   1        -0.02515602
   2        -0.16807077
   3        -0.29878034
   4         1.58328947
   5        -0.01221365
   6        -0.07002995
   7         0.00576056
   8        -0.08547273
   9        -0.49007912
  10         0.04031638
  11        -0.06961979
  12        -0.39917353
  13         0.03282916
  14        -0.12612521
  15        -0.00640196
  16        -0.03493349
  17        -0.20403410
  18         0.07337616
  19         0.28309361
  20         1.03113741
  21        -3.84886279
  22         0.60584489
  23         0.34338953
  24        -0.05859911
  25         1.10296952
  26         0.64504144
  27        -0.10790944
  28         0.48202072
  29         0.07220363
  30         0.06022016
  31        -0.18071103
  32        -0.21241263
  33        -0.27642414
  34        -1.02103760
  35         3.22472699
  36         0.26121268
  37         0.51025607
  38        -0.05152185
  39         0.27164991
  40         1.15994248
  41        -0.09920320
  42        -0.47488174
  43        -0.03694752
  44        -0.08214068
  45        -0.24801210
  46         0.07298592
  47        -0.27642305
  48        -1.02103395
  49         3.22470401
  50        -0.07286397
  51         0.56968790
  52        -0.03730275
  53         0.13712350
  54         1.18385892
  55        -0.09359476
  56        -0.47464770
  57        -0.03935422
  58        -0.08339042
  59        -0.23882118
  60         0.09813541
  61         0.28309293
  62         1.03113498
  63        -3.84884954
  64        -0.45320113
  65         0.53181118
  66        -0.01339771
  67        -0.81835295
  68         0.98684034
  69        -0.02634156
  70         0.48522290
  71         0.02602466
  72         0.04531282
  73        -0.00008465
  74         0.28422855
  75         0.27248496
  76        -0.63681472
  77         0.37069866
  78        -0.01592415
  79        -0.01938424
  80        -0.24656543
  81         0.55377478
  82        -0.19228882
  83         0.19188476
  84        -0.00333122
  85        -0.24656513
  86         0.55377166
  87         0.24563622
  88         0.11398784
  89        -0.02178372
  90         0.27248557
  91        -0.63681305
  92        -0.35377782
  93         0.11295564
  94         0.01131850
Sym=    84a  
Ene=     2.2618
Spin= Alpha
Occup=    0.00000
   1        -0.00000005
   2        -0.00000035
   3        -0.00000064
   4         0.00000350
   5        -0.05776073
   6         0.01027537
   7         0.00245094
   8        -0.37916879
   9         0.06745210
  10         0.01608638
  11         0.31365894
  12        -0.05579977
  13        -0.01330406
  14         0.00068793
  15        -0.01021839
  16        -0.00316149
  17         0.04014906
  18         0.11042814
  19        -0.24120430
  20        -0.80729650
  21         4.05233558
  22        -0.52191419
  23        -0.57961454
  24         0.07096157
  25        -1.30126201
  26        -1.12915711
  27         0.15398089
  28        -0.56432075
  29        -0.07444953
  30        -0.10884237
  31        -0.19191654
  32         0.41738358
  33         0.05723047
  34         0.00706998
  35        -4.11396409
  36         0.11515104
  37        -1.00634998
  38         0.06666813
  39        -0.45911612
  40        -1.67470395
  41         0.14698833
  42         0.57638116
  43         0.06684485
  44         0.07635451
  45        -0.04510573
  46        -0.11749319
  47        -0.05723144
  48        -0.00707351
  49         4.11397623
  50         0.44868662
  51         0.90604192
  52        -0.09063911
  53         0.13509925
  54         1.73234734
  55        -0.13327473
  56        -0.57789315
  57        -0.04433038
  58        -0.06945513
  59        -0.04321790
  60        -0.12544765
  61         0.24120551
  62         0.80730098
  63        -4.05235040
  64        -0.29440963
  65         0.72483774
  66        -0.03633217
  67        -0.84093330
  68         1.51024858
  69        -0.06313286
  70         0.56818824
  71         0.01705000
  72         0.09108262
  73         0.41746065
  74         0.20295917
  75        -0.03545154
  76         0.50152706
  77        -0.25229806
  78        -0.03214785
  79         0.01631186
  80         0.07822458
  81        -0.52498964
  82         0.28101140
  83        -0.19824485
  84        -0.00118293
  85        -0.07822616
  86         0.52499175
  87         0.33116860
  88         0.08933614
  89        -0.02483485
  90         0.03545257
  91        -0.50152982
  92        -0.22623836
  93         0.11728082
  94         0.00401585
Sym=    85a  
Ene=     2.3313
Spin= Alpha
Occup=    0.00000
   1        -0.00000012
   2        -0.00000084
   3        -0.00000182
   4         0.00000598
   5        -0.01007987
   6         0.00179317
   7         0.00042888
   8        -0.01673385
   9         0.00297712
  10         0.00071980
  11        -0.08920493
  12         0.01586671
  13         0.00377337
  14         0.00067274
  15        -0.00997768
  16        -0.00309451
  17         0.03919529
  18         0.10780013
  19         0.05515770
  20         0.10762427
  21        -0.08875585
  22        -0.17751016
  23         0.18993342
  24        -0.00395872
  25         0.00025741
  26         0.20858375
  27        -0.01515499
  28         0.27987119
  29         0.04233092
  30         0.09269111
  31         0.39565036
  32        -0.50797981
  33         0.53403094
  34         2.22164817
  35        -3.82696005
  36         0.57428256
  37         0.09553044
  38        -0.03871700
  39         1.34047302
  40        -1.03459976
  41         0.00086856
  42         0.16064844
  43        -0.01385966
  44         0.01463233
  45         0.14586207
  46         0.29223692
  47        -0.53403097
  48        -2.22164758
  49         3.82696850
  50         0.50739716
  51        -0.28795552
  52        -0.00716718
  53         1.60981973
  54         0.50974213
  55        -0.12616397
  56        -0.15685509
  57        -0.04241142
  58        -0.03208411
  59         0.07525233
  60         0.31590860
  61        -0.05515631
  62        -0.10761939
  63         0.08873946
  64        -0.23108460
  65        -0.11724283
  66         0.02130747
  67        -0.07033146
  68        -0.19611547
  69         0.01813280
  70        -0.28389993
  71         0.01746955
  72        -0.07415372
  73        -0.63066063
  74        -0.13839436
  75         0.00189533
  76         0.04863392
  77        -0.16908170
  78         0.30837738
  79        -0.01304065
  80        -0.06883688
  81        -0.57482023
  82        -0.00484683
  83        -0.48401351
  84         0.03540953
  85         0.06883557
  86         0.57482171
  87         0.15919642
  88         0.45655419
  89        -0.04195485
  90        -0.00189555
  91        -0.04863521
  92        -0.26323515
  93        -0.23146921
  94         0.03136284
Sym=    86a  
Ene=     2.4170
Spin= Alpha
Occup=    0.00000
   1        -0.05122954
   2        -0.36307029
   3        -0.80661754
   4         2.36597559
   5        -0.00341144
   6        -0.01955989
   7         0.00160860
   8        -0.00874425
   9        -0.05013432
  10         0.00412146
  11        -0.12114428
  12        -0.69460244
  13         0.05712898
  14        -0.14680589
  15        -0.02398892
  16         0.01346405
  17         0.34399918
  18        -0.12599122
  19         0.17051112
  20         0.52507203
  21        -2.52720643
  22        -0.14275225
  23         0.27616902
  24        -0.01215146
  25         1.07218620
  26        -0.11255025
  27        -0.05117924
  28         0.41327474
  29         0.04816685
  30         0.12181623
  31         0.54865893
  32        -0.52707823
  33         0.08136181
  34         0.43781742
  35         0.90305280
  36         0.80027815
  37         0.36885860
  38        -0.07107758
  39        -0.37740829
  40         0.50091100
  41        -0.01547608
  42        -0.21727459
  43        -0.03709376
  44        -0.01076823
  45         0.25286552
  46         0.02931994
  47         0.08136376
  48         0.43782568
  49         0.90304262
  50        -0.62732295
  51         0.62282702
  52        -0.01050529
  53         0.52415760
  54         0.34052186
  55        -0.05373482
  56        -0.21861753
  57        -0.01705814
  58        -0.00461484
  59         0.17411227
  60        -0.18729727
  61         0.17051122
  62         0.52507194
  63        -2.52720774
  64         0.22759425
  65         0.21028629
  66        -0.02786278
  67        -1.04573465
  68         0.26422410
  69         0.03868719
  70         0.41691727
  71        -0.00580761
  72         0.10506617
  73         0.76075157
  74         0.05624414
  75        -0.00845577
  76        -0.08364806
  77        -0.22715564
  78         0.40426513
  79        -0.01678049
  80        -0.05492491
  81         0.12005823
  82        -0.19895898
  83        -0.29792534
  84         0.03265398
  85        -0.05492532
  86         0.12005683
  87         0.08618968
  88        -0.34865652
  89         0.02053070
  90        -0.00845594
  91        -0.08364816
  92         0.35025614
  93         0.30154721
  94        -0.04126890
Sym=    87a  
Ene=     2.4486
Spin= Alpha
Occup=    0.00000
   1        -0.00000189
   2        -0.00001380
   3        -0.00003319
   4         0.00006373
   5         0.00000014
   6         0.00000085
   7        -0.00000006
   8         0.00000112
   9         0.00000632
  10        -0.00000042
  11        -0.00000241
  12        -0.00002445
  13         0.00000185
  14         0.00089369
  15        -0.01217406
  16         0.00220827
  17        -0.00082792
  18        -0.00076708
  19         0.00000407
  20         0.00001238
  21        -0.00004556
  22         0.00698063
  23         0.00917835
  24         0.12647485
  25        -0.00125785
  26        -0.00167564
  27        -0.02307953
  28         0.08131639
  29        -0.54044568
  30        -0.22915453
  31        -0.01316561
  32        -0.05231521
  33         0.00001085
  34         0.00004396
  35        -0.00000265
  36        -0.01006180
  37        -0.01313321
  38        -0.18149889
  39         0.00098597
  40         0.00127274
  41         0.01778241
  42         0.07937635
  43         0.27707905
  44        -0.83731379
  45         0.07623434
  46        -0.02660872
  47         0.00001576
  48         0.00005835
  49        -0.00008113
  50         0.01006917
  51         0.01323007
  52         0.18149142
  53        -0.00102694
  54        -0.00134018
  55        -0.01777530
  56        -0.13944103
  57         0.53796711
  58         0.68945872
  59        -0.02045450
  60         0.07787309
  61         0.00000810
  62         0.00002772
  63        -0.00003968
  64        -0.00697958
  65        -0.00920287
  66        -0.12647299
  67         0.00125731
  68         0.00168978
  69         0.02307851
  70        -0.00965825
  71        -0.43199139
  72         0.40556461
  73        -0.05334628
  74        -0.00886009
  75         0.00000996
  76         0.00000000
  77         0.01939281
  78         0.02546468
  79         0.35060258
  80         0.00000908
  81        -0.00000012
  82        -0.03035627
  83        -0.03978197
  84        -0.54815397
  85         0.00000816
  86        -0.00000762
  87         0.03036334
  88         0.03981233
  89         0.54815185
  90         0.00000890
  91        -0.00000178
  92        -0.01938607
  93        -0.02544669
  94        -0.35060497
Sym=    88a  
Ene=     2.6787
Spin= Alpha
Occup=    0.00000
   1        -0.00250975
   2        -0.01497448
   3        -0.00466440
   4         0.11072947
   5        -0.00141803
   6        -0.00812737
   7         0.00066844
   8        -0.01535722
   9        -0.08803150
  10         0.00723994
  11        -0.00716242
  12        -0.04107788
  13         0.00337788
  14        -0.06658412
  15        -0.00394788
  16        -0.01639509
  17        -0.08569142
  18         0.03073812
  19        -0.10121490
  20        -0.56400202
  21        -0.82111929
  22        -0.84319423
  23        -0.05964613
  24         0.05100420
  25         0.29854420
  26         0.22645912
  27        -0.03296878
  28         0.22735112
  29         0.03577282
  30        -0.00136402
  31        -0.35416337
  32         0.07916073
  33        -0.30811871
  34        -1.37404812
  35         0.96251173
  36        -0.24236159
  37         0.73627783
  38        -0.04003794
  39         0.11161523
  40         0.21582329
  41        -0.02183447
  42         0.07300417
  43        -0.02925669
  44         0.02569078
  45         0.38435570
  46         0.20645563
  47        -0.30812198
  48        -1.37405750
  49         0.96258139
  50         0.47687164
  51         0.60832247
  52        -0.07055925
  53        -0.03186275
  54         0.24136951
  55        -0.01577688
  56         0.06918986
  57         0.02724774
  58         0.04318221
  59         0.16229242
  60        -0.40431067
  61        -0.10121564
  62        -0.56400635
  63        -0.82114735
  64         0.77226742
  65        -0.34702917
  66        -0.01755009
  67        -0.20397110
  68         0.31586440
  69        -0.01164120
  70         0.22791798
  71         0.02742981
  72        -0.00396400
  73        -0.32138440
  74         0.16930999
  75         1.23768966
  76        -0.30921002
  77        -0.75631808
  78        -0.21004985
  79         0.05711063
  80         1.19124470
  81        -0.21109218
  82        -0.45520098
  83         0.68055268
  84        -0.02419951
  85         1.19123885
  86        -0.21108631
  87         0.65804317
  88         0.48250239
  89        -0.07146702
  90         1.23769056
  91        -0.30921245
  92         0.63973458
  93        -0.45840906
  94        -0.00212194
Sym=    89a  
Ene=     2.6873
Spin= Alpha
Occup=    0.00000
   1        -0.00000005
   2        -0.00000035
   3        -0.00000075
   4         0.00000091
   5         0.10606037
   6        -0.01886799
   7        -0.00450140
   8         0.72036156
   9        -0.12815146
  10        -0.03057204
  11        -0.33454120
  12         0.05951424
  13         0.01420044
  14        -0.00224431
  15         0.03328666
  16         0.01031920
  17        -0.13081672
  18        -0.35979398
  19        -0.06502514
  20        -0.46464079
  21        -3.04518878
  22        -0.30613177
  23         0.47643746
  24        -0.01763266
  25         1.32551984
  26         0.59476118
  27        -0.11653916
  28         0.37199361
  29         0.00814580
  30         0.02878066
  31         0.02545242
  32         0.36145506
  33        -0.27793616
  34        -0.77053711
  35         6.53142429
  36        -0.27545128
  37        -0.40888959
  38         0.04494953
  39        -0.84962303
  40         2.53305224
  41        -0.13682589
  42        -0.76105313
  43        -0.11442357
  44        -0.09329350
  45         0.29950510
  46         0.33217900
  47         0.27793355
  48         0.77052545
  49        -6.53141745
  50        -0.12053221
  51         0.47934420
  52        -0.02811316
  53        -1.65546520
  54        -2.08739002
  55         0.24324120
  56         0.76597111
  57         0.04152726
  58         0.07068632
  59        -0.01312954
  60         0.45545316
  61         0.06502428
  62         0.46463569
  63         3.04518121
  64        -0.44888663
  65        -0.34212006
  66         0.04970505
  67         1.04452310
  68        -1.01638343
  69         0.01599667
  70        -0.36792529
  71        -0.06835356
  72        -0.04750041
  73         0.21115046
  74         0.28928867
  75         0.58758611
  76        -0.33187870
  77        -0.45084766
  78        -0.42237380
  79         0.05562006
  80        -0.44864810
  81         0.52593514
  82         0.25791484
  83        -0.36360159
  84         0.01211433
  85         0.44865941
  86        -0.52593719
  87         0.36541047
  88         0.25271693
  89        -0.03858840
  90        -0.58757335
  91         0.33187596
  92        -0.28080924
  93         0.55253173
  94        -0.02457094
Sym=    90a  
Ene=     2.7323
Spin= Alpha
Occup=    0.00000
   1        -0.00579140
   2        -0.07476041
   3        -0.40468997
   4        -0.41218010
   5         0.01765403
   6         0.10122304
   7        -0.00832501
   8         0.12383355
   9         0.71002597
  10        -0.05839491
  11        -0.01317797
  12        -0.07556008
  13         0.00621232
  14         0.15988754
  15         0.01201799
  16         0.03113841
  17         0.11735869
  18        -0.04166171
  19        -0.25937810
  20        -1.06978584
  21         1.92325516
  22         0.24521042
  23         0.28119219
  24        -0.03398942
  25        -0.58617505
  26        -0.41379774
  27         0.06249031
  28        -0.08707805
  29         0.05558834
  30         0.02809217
  31        -0.08594058
  32        -0.81124501
  33         0.33420292
  34         1.31658109
  35        -2.19520138
  36        -0.33593795
  37         0.87302481
  38        -0.04476168
  39        -0.10127110
  40        -0.67881268
  41         0.05487029
  42         0.22125770
  43         0.01531053
  44        -0.03137358
  45        -0.47633765
  46         0.44320774
  47         0.33420282
  48         1.31658146
  49        -2.19519236
  50         0.61107869
  51         0.70454503
  52        -0.08500430
  53        -0.13447624
  54        -0.67289860
  55         0.05631965
  56         0.21830164
  57         0.05921038
  58        -0.01779969
  59        -0.64887622
  60        -0.03135155
  61        -0.25937730
  62        -1.06978241
  63         1.92324971
  64        -0.13532155
  65         0.34888834
  66        -0.01784089
  67         0.41089909
  68        -0.59117345
  69         0.02018507
  70        -0.07779714
  71        -0.08202983
  72        -0.01459233
  73         0.45483630
  74         0.67608668
  75         0.11800498
  76         0.00572859
  77        -0.09199070
  78         0.43590161
  79        -0.02655535
  80         0.62312988
  81        -0.13351506
  82         0.23231347
  83         0.49164778
  84        -0.04853832
  85         0.62312713
  86        -0.13351382
  87        -0.05199902
  88         0.54222192
  89        -0.03650410
  90         0.11800177
  91         0.00572908
  92         0.23392588
  93         0.37792137
  94        -0.04038655
Sym=    91a  
Ene=     2.8434
Spin= Alpha
Occup=    0.00000
   1        -0.00000002
   2        -0.00000018
   3        -0.00000063
   4         0.00000003
   5         0.01415062
   6        -0.00251730
   7        -0.00060103
   8         0.12002529
   9        -0.02135193
  10        -0.00509761
  11        -0.03810442
  12         0.00677891
  13         0.00162302
  14        -0.00045828
  15         0.00679527
  16         0.00210832
  17        -0.02670443
  18        -0.07344692
  19         0.00670345
  20         0.17384456
  21         0.52860227
  22         1.18015250
  23         0.27526611
  24        -0.08530794
  25         0.01282943
  26        -0.19281232
  27         0.01328241
  28        -0.32712090
  29        -0.06883119
  30        -0.00749810
  31         0.54292596
  32         0.09865237
  33        -0.06160387
  34        -0.10992449
  35         1.67772281
  36         0.55636178
  37        -0.64950484
  38         0.01635043
  39        -0.82155443
  40         0.33840034
  41         0.02092851
  42        -0.31411247
  43        -0.01056664
  44        -0.07381528
  45        -0.42714112
  46         0.05186708
  47         0.06160369
  48         0.10992344
  49        -1.67772458
  50         0.74261857
  51         0.41842072
  52        -0.07149182
  53        -0.88659520
  54        -0.03452019
  55         0.05160283
  56         0.31299643
  57         0.02714428
  58         0.07894972
  59         0.36197848
  60        -0.23108878
  61        -0.00670456
  62        -0.17384947
  63        -0.52860057
  64         1.01599869
  65        -0.66595750
  66        -0.00787929
  67         0.07728910
  68         0.17677904
  69        -0.01711973
  70         0.33040894
  71         0.02010488
  72        -0.00762507
  73        -0.35145452
  74         0.42796283
  75        -1.64659087
  76         0.36969017
  77         0.86174101
  78         0.09032228
  79        -0.05425552
  80        -1.03866865
  81         0.33508494
  82         0.42584798
  83        -0.47028529
  84         0.01056362
  85         1.03867384
  86        -0.33508616
  87         0.55932551
  88         0.29502563
  89        -0.05238781
  90         1.64659581
  91        -0.36969145
  92         0.77932105
  93        -0.38226449
  94        -0.01537689
Sym=    92a  
Ene=     2.9380
Spin= Alpha
Occup=    0.00000
   1         0.00000003
   2         0.00000018
   3         0.00000015
   4        -0.00000211
   5         0.06926305
   6        -0.01232160
   7        -0.00293880
   8         0.47882201
   9        -0.08518027
  10        -0.02031527
  11        -0.31934205
  12         0.05681016
  13         0.01354315
  14        -0.00168690
  15         0.02502358
  16         0.00775933
  17        -0.09833978
  18        -0.27047242
  19         0.38225239
  20         1.59646551
  21        -1.73033266
  22        -0.09313425
  23        -0.61042870
  24         0.04945744
  25         0.34233115
  26         0.72403116
  27        -0.07149593
  28        -0.05100426
  29        -0.06620627
  30        -0.02094027
  31         0.28213952
  32         0.62572049
  33         0.12441230
  34         0.55828177
  35        -0.22807021
  36        -0.68628456
  37        -0.43702901
  38         0.06973504
  39         1.09388106
  40         0.55507638
  41        -0.10086918
  42        -0.03672959
  43         0.02669966
  44         0.10795302
  45         0.77706910
  46        -1.00192010
  47        -0.12441195
  48        -0.55828096
  49         0.22806281
  50        -0.49712165
  51         0.64756185
  52        -0.01948332
  53         0.84025121
  54        -0.89916159
  55         0.01875733
  56         0.02880125
  57         0.09084596
  58        -0.07147223
  59        -1.23899152
  60        -0.26852996
  61        -0.38225291
  62        -1.59646695
  63         1.73034138
  64         0.11898808
  65         0.60582753
  66        -0.05059083
  67         0.07677702
  68        -0.79858821
  69         0.05375306
  70         0.05903175
  71        -0.05288735
  72        -0.01597592
  73         0.18584907
  74         0.66141914
  75        -0.55634202
  76         0.16817173
  77         0.32185494
  78        -0.22923150
  79        -0.00118400
  80        -0.37280032
  81         0.13733701
  82        -0.52526438
  83        -0.46872016
  84         0.06311675
  85         0.37280632
  86        -0.13733898
  87        -0.33507210
  88         0.62177721
  89        -0.02658805
  90         0.55633821
  91        -0.16817026
  92         0.38003525
  93         0.10436568
  94        -0.02862313
Sym=    93a  
Ene=     3.0429
Spin= Alpha
Occup=    0.00000
   1         0.02873339
   2         0.20852215
   3         0.48054778
   4        -1.10436892
   5         0.00199060
   6         0.01141396
   7        -0.00093900
   8         0.02492308
   9         0.14290401
  10        -0.01175559
  11         0.05504360
  12         0.31560078
  13        -0.02595638
  14         0.07650764
  15         0.00019961
  16         0.03292968
  17         0.24980628
  18        -0.09034008
  19         0.06905699
  20         0.52513867
  21         1.49674136
  22         0.69751989
  23         0.13260749
  24        -0.04824390
  25        -0.36814780
  26        -0.18236590
  27         0.03362117
  28        -0.47059477
  29        -0.11751926
  30        -0.00975260
  31         0.91322417
  32         0.29544894
  33        -0.09069883
  34        -0.54576048
  35        -0.94715030
  36        -0.15490756
  37         0.60096238
  38        -0.03505890
  39        -0.17202194
  40        -0.36619070
  41         0.03610283
  42         0.38496542
  43        -0.02725867
  44         0.07799504
  45         0.68282036
  46         0.36649893
  47        -0.09069861
  48        -0.54575930
  49        -0.94715036
  50         0.34890291
  51         0.51133442
  52        -0.05643352
  53         0.03777729
  54        -0.40351140
  55         0.02721286
  56         0.37821499
  57         0.07283185
  58         0.10903733
  59         0.28952830
  60        -0.71520707
  61         0.06905849
  62         0.52514472
  63         1.49673552
  64        -0.61067555
  65         0.36533254
  66         0.00728380
  67         0.28429271
  68        -0.29843219
  69         0.00593345
  70        -0.47754408
  71        -0.01445928
  72         0.02219673
  73         0.50830186
  74        -0.81823789
  75        -1.93240460
  76         0.68771961
  77         0.85998852
  78         0.01666431
  79        -0.04881723
  80         1.54422940
  81        -0.55976950
  82        -0.42048357
  83         0.59094166
  84        -0.01962258
  85         1.54422708
  86        -0.55976866
  87         0.59510374
  88         0.41026754
  89        -0.06272729
  90        -1.93240583
  91         0.68772002
  92        -0.80259145
  93         0.31243581
  94         0.02174757
Sym=    94a  
Ene=     3.5538
Spin= Alpha
Occup=    0.00000
   1        -0.00000003
   2        -0.00000019
   3        -0.00000042
   4         0.00000118
   5         0.02706319
   6        -0.00481446
   7        -0.00114777
   8         0.24735891
   9        -0.04400443
  10        -0.01049104
  11        -0.20658904
  12         0.03675125
  13         0.00876328
  14        -0.00072085
  15         0.01069217
  16         0.00331616
  17        -0.04203081
  18        -0.11559971
  19        -0.02717139
  20         0.04278836
  21         1.41065577
  22         0.37782684
  23         0.24003856
  24        -0.03833262
  25        -0.27762660
  26        -0.26219679
  27         0.03439636
  28        -0.32206100
  29        -0.11360977
  30         0.00527730
  31         0.94987347
  32         0.41090716
  33        -0.01262552
  34        -0.28619331
  35        -2.15052447
  36        -0.40855111
  37         0.47668181
  38        -0.01198533
  39         0.31363626
  40        -0.47957803
  41         0.01743994
  42         0.51026839
  43        -0.10367790
  44         0.07862234
  45         1.13970427
  46         1.23293002
  47         0.01262613
  48         0.28619575
  49         2.15052430
  50        -0.54523273
  51        -0.30700487
  52         0.05247262
  53         0.45700915
  54         0.34247865
  55        -0.05018109
  56        -0.49213572
  57        -0.16507097
  58        -0.16203371
  59        -0.08371341
  60         1.67141884
  61         0.02717140
  62        -0.04278874
  63        -1.41065865
  64         0.27387903
  65        -0.35597547
  66         0.01069537
  67        -0.17221253
  68         0.34222155
  69        -0.01532396
  70         0.33042375
  71        -0.01034703
  72        -0.04373347
  73        -0.46283497
  74         0.92862824
  75        -1.52904167
  76         0.62557769
  77         0.56632518
  78        -0.07969018
  79        -0.02556926
  80         2.46143621
  81        -1.07607245
  82        -0.36041746
  83         0.84476117
  84        -0.04138768
  85        -2.46143886
  86         1.07607366
  87        -0.62452482
  88        -0.66954345
  89         0.08316640
  90         1.52904539
  91        -0.62557920
  92         0.55920169
  93        -0.12054117
  94        -0.02220896
