10
pyrazine N1 C2 C3 N4 C5 C6 H2 H3 H5 H6 (MMFF94 start)
N     -0.02520001     1.41658519     0.05360708
C     -1.15395404     0.67119348     0.03921777
C     -1.12933441    -0.71280025    -0.01314383
N      0.02519974    -1.41658898    -0.05359673
C      1.15395359    -0.67119505    -0.03922052
C      1.12933279     0.71279746     0.01315181
H     -2.08763885     1.22065413     0.07117315
H     -2.04287567    -1.29591260    -0.02402636
H      2.08764451    -1.22064443    -0.07119633
H      2.04287235     1.29591104     0.02403397
