[Molden Format]
[N_Atoms]
                   10
[Atoms] (AU)
N1          1      7          -0.04748355      2.66925004      0.10101958
C2          2      6          -2.16336629      1.28147185      0.07441547
C3          3      6          -2.11638547     -1.35945677     -0.02548781
N4          4      7           0.04748355     -2.66924834     -0.10101896
C5          5      6           2.16336557     -1.28147191     -0.07442142
C6          6      6           2.11638642      1.35945565      0.02551230
H7          7      1          -3.96011986      2.30661966      0.13467961
H8          8      1          -3.87551298     -2.44939312     -0.04526412
H9          9      1           3.96011867     -2.30662052     -0.13467471
H10        10      1           3.87551397      2.44939344      0.04524010
[5D]
[Charge] (Mulliken)
 -0.26484546439272094     
   8.4353599761137765E-002
   8.4347768662389910E-002
 -0.26483325568814564     
   8.4348064141325452E-002
   8.4353575135639680E-002
   4.8068923986750445E-002
   4.8068943465624292E-002
   4.8068919077645988E-002
   4.8068925849113708E-002
[GTO] (AU)
   1
   s   9
  9.046000000E+03  7.000000346E-04
  1.357000000E+03  5.389000266E-03
  3.093000000E+02  2.740600135E-02
  8.773000000E+01  1.032070051E-01
  2.856000000E+01  2.787230138E-01
  1.021000000E+01  4.485400222E-01
  3.838000000E+00  2.782380137E-01
  7.466000000E-01  1.544000076E-02
  2.248000000E-01 -2.864000141E-03
   s   9
  9.046000000E+03 -1.529999886E-04
  1.357000000E+03 -1.207999910E-03
  3.093000000E+02 -5.991999553E-03
  8.773000000E+01 -2.454399817E-02
  2.856000000E+01 -6.745899497E-02
  1.021000000E+01 -1.580779882E-01
  3.838000000E+00 -1.218309909E-01
  7.466000000E-01  5.490029590E-01
  2.248000000E-01  5.788149568E-01
   s   1
  2.248000000E-01  1.000000000E+00
   p   4
  1.355000000E+01  3.991901233E-02
  2.917000000E+00  2.171690671E-01
  7.973000000E-01  5.103191576E-01
  2.185000000E-01  4.622141427E-01
   p   1
  2.185000000E-01  1.000000000E+00
   d   1
  8.170000000E-01  1.000000000E+00
 
   2
   s   9
  6.665000000E+03  6.920001793E-04
  1.000000000E+03  5.329001381E-03
  2.280000000E+02  2.707700701E-02
  6.471000000E+01  1.017180264E-01
  2.106000000E+01  2.747400712E-01
  7.495000000E+00  4.485641162E-01
  2.797000000E+00  2.850740738E-01
  5.215000000E-01  1.520400394E-02
  1.596000000E-01 -3.191000827E-03
   s   9
  6.665000000E+03 -1.460000642E-04
  1.000000000E+03 -1.154000508E-03
  2.280000000E+02 -5.725002519E-03
  6.471000000E+01 -2.331201026E-02
  2.106000000E+01 -6.395502813E-02
  7.495000000E+00 -1.499810660E-01
  2.797000000E+00 -1.272620560E-01
  5.215000000E-01  5.445292395E-01
  1.596000000E-01  5.804962554E-01
   s   1
  1.596000000E-01  1.000000000E+00
   p   4
  9.439000000E+00  3.810902127E-02
  2.002000000E+00  2.094801169E-01
  5.456000000E-01  5.085572839E-01
  1.517000000E-01  4.688422617E-01
   p   1
  1.517000000E-01  1.000000000E+00
   d   1
  5.500000000E-01  1.000000000E+00
 
   3
   s   9
  6.665000000E+03  6.920001793E-04
  1.000000000E+03  5.329001381E-03
  2.280000000E+02  2.707700701E-02
  6.471000000E+01  1.017180264E-01
  2.106000000E+01  2.747400712E-01
  7.495000000E+00  4.485641162E-01
  2.797000000E+00  2.850740738E-01
  5.215000000E-01  1.520400394E-02
  1.596000000E-01 -3.191000827E-03
   s   9
  6.665000000E+03 -1.460000642E-04
  1.000000000E+03 -1.154000508E-03
  2.280000000E+02 -5.725002519E-03
  6.471000000E+01 -2.331201026E-02
  2.106000000E+01 -6.395502813E-02
  7.495000000E+00 -1.499810660E-01
  2.797000000E+00 -1.272620560E-01
  5.215000000E-01  5.445292395E-01
  1.596000000E-01  5.804962554E-01
   s   1
  1.596000000E-01  1.000000000E+00
   p   4
  9.439000000E+00  3.810902127E-02
  2.002000000E+00  2.094801169E-01
  5.456000000E-01  5.085572839E-01
  1.517000000E-01  4.688422617E-01
   p   1
  1.517000000E-01  1.000000000E+00
   d   1
  5.500000000E-01  1.000000000E+00
 
   4
   s   9
  9.046000000E+03  7.000000346E-04
  1.357000000E+03  5.389000266E-03
  3.093000000E+02  2.740600135E-02
  8.773000000E+01  1.032070051E-01
  2.856000000E+01  2.787230138E-01
  1.021000000E+01  4.485400222E-01
  3.838000000E+00  2.782380137E-01
  7.466000000E-01  1.544000076E-02
  2.248000000E-01 -2.864000141E-03
   s   9
  9.046000000E+03 -1.529999886E-04
  1.357000000E+03 -1.207999910E-03
  3.093000000E+02 -5.991999553E-03
  8.773000000E+01 -2.454399817E-02
  2.856000000E+01 -6.745899497E-02
  1.021000000E+01 -1.580779882E-01
  3.838000000E+00 -1.218309909E-01
  7.466000000E-01  5.490029590E-01
  2.248000000E-01  5.788149568E-01
   s   1
  2.248000000E-01  1.000000000E+00
   p   4
  1.355000000E+01  3.991901233E-02
  2.917000000E+00  2.171690671E-01
  7.973000000E-01  5.103191576E-01
  2.185000000E-01  4.622141427E-01
   p   1
  2.185000000E-01  1.000000000E+00
   d   1
  8.170000000E-01  1.000000000E+00
 
   5
   s   9
  6.665000000E+03  6.920001793E-04
  1.000000000E+03  5.329001381E-03
  2.280000000E+02  2.707700701E-02
  6.471000000E+01  1.017180264E-01
  2.106000000E+01  2.747400712E-01
  7.495000000E+00  4.485641162E-01
  2.797000000E+00  2.850740738E-01
  5.215000000E-01  1.520400394E-02
  1.596000000E-01 -3.191000827E-03
   s   9
  6.665000000E+03 -1.460000642E-04
  1.000000000E+03 -1.154000508E-03
  2.280000000E+02 -5.725002519E-03
  6.471000000E+01 -2.331201026E-02
  2.106000000E+01 -6.395502813E-02
  7.495000000E+00 -1.499810660E-01
  2.797000000E+00 -1.272620560E-01
  5.215000000E-01  5.445292395E-01
  1.596000000E-01  5.804962554E-01
   s   1
  1.596000000E-01  1.000000000E+00
   p   4
  9.439000000E+00  3.810902127E-02
  2.002000000E+00  2.094801169E-01
  5.456000000E-01  5.085572839E-01
  1.517000000E-01  4.688422617E-01
   p   1
  1.517000000E-01  1.000000000E+00
   d   1
  5.500000000E-01  1.000000000E+00
 
   6
   s   9
  6.665000000E+03  6.920001793E-04
  1.000000000E+03  5.329001381E-03
  2.280000000E+02  2.707700701E-02
  6.471000000E+01  1.017180264E-01
  2.106000000E+01  2.747400712E-01
  7.495000000E+00  4.485641162E-01
  2.797000000E+00  2.850740738E-01
  5.215000000E-01  1.520400394E-02
  1.596000000E-01 -3.191000827E-03
   s   9
  6.665000000E+03 -1.460000642E-04
  1.000000000E+03 -1.154000508E-03
  2.280000000E+02 -5.725002519E-03
  6.471000000E+01 -2.331201026E-02
  2.106000000E+01 -6.395502813E-02
  7.495000000E+00 -1.499810660E-01
  2.797000000E+00 -1.272620560E-01
  5.215000000E-01  5.445292395E-01
  1.596000000E-01  5.804962554E-01
   s   1
  1.596000000E-01  1.000000000E+00
   p   4
  9.439000000E+00  3.810902127E-02
  2.002000000E+00  2.094801169E-01
  5.456000000E-01  5.085572839E-01
  1.517000000E-01  4.688422617E-01
   p   1
  1.517000000E-01  1.000000000E+00
   d   1
  5.500000000E-01  1.000000000E+00
 
   7
   s   4
  1.301000000E+01  1.968498999E-02
  1.962000000E+00  1.379769298E-01
  4.446000000E-01  4.781477569E-01
  1.220000000E-01  5.012397451E-01
   s   1
  1.220000000E-01  1.000000000E+00
   p   1
  7.270000000E-01  1.000000000E+00
 
   8
   s   4
  1.301000000E+01  1.968498999E-02
  1.962000000E+00  1.379769298E-01
  4.446000000E-01  4.781477569E-01
  1.220000000E-01  5.012397451E-01
   s   1
  1.220000000E-01  1.000000000E+00
   p   1
  7.270000000E-01  1.000000000E+00
 
   9
   s   4
  1.301000000E+01  1.968498999E-02
  1.962000000E+00  1.379769298E-01
  4.446000000E-01  4.781477569E-01
  1.220000000E-01  5.012397451E-01
   s   1
  1.220000000E-01  1.000000000E+00
   p   1
  7.270000000E-01  1.000000000E+00
 
  10
   s   4
  1.301000000E+01  1.968498999E-02
  1.962000000E+00  1.379769298E-01
  4.446000000E-01  4.781477569E-01
  1.220000000E-01  5.012397451E-01
   s   1
  1.220000000E-01  1.000000000E+00
   p   1
  7.270000000E-01  1.000000000E+00
 
[MO]
Sym=     1a  
Ene=   -15.5830
Spin= Alpha
Occup=    2.00000
   1         0.65918514
   2         0.00096999
   3        -0.00559416
   4         0.00010963
   5        -0.00616286
   6        -0.00023323
   7        -0.00003763
   8         0.00211548
   9         0.00008007
  10        -0.00027382
  11        -0.00000611
  12         0.00001660
  13         0.00003345
  14         0.00000141
  15         0.00006824
  16         0.00019941
  17         0.00064393
  18         0.00050871
  19         0.00127935
  20         0.00004190
  21         0.00036657
  22        -0.00011095
  23        -0.00000860
  24         0.00004028
  25        -0.00001495
  26        -0.00000295
  27         0.00012989
  28        -0.00037764
  29         0.00008587
  30         0.00039567
  31         0.00115531
  32         0.00065448
  33        -0.00124254
  34        -0.00005473
  35         0.00062001
  36         0.00028576
  37         0.00000323
  38         0.00005471
  39         0.00001767
  40        -0.00001304
  41         0.00009946
  42         0.00047043
  43         0.75349690
  44         0.00126461
  45        -0.00680442
  46        -0.00012616
  47         0.00709444
  48         0.00026853
  49         0.00004565
  50        -0.00256651
  51        -0.00009715
  52        -0.00031690
  53        -0.00000705
  54         0.00001924
  55         0.00003804
  56         0.00000161
  57         0.00008587
  58         0.00039570
  59         0.00115530
  60        -0.00060991
  61        -0.00126561
  62        -0.00004017
  63        -0.00062976
  64         0.00026300
  65         0.00001751
  66         0.00005541
  67        -0.00001784
  68        -0.00000302
  69         0.00013306
  70        -0.00046213
  71         0.00006824
  72         0.00019940
  73         0.00064393
  74        -0.00055388
  75         0.00125998
  76         0.00005416
  77        -0.00036239
  78        -0.00012423
  79        -0.00000028
  80         0.00003971
  81         0.00001413
  82        -0.00001114
  83         0.00010238
  84         0.00038595
  85         0.00061014
  86         0.00017627
  87        -0.00007145
  88        -0.00001532
  89         0.00000028
  90         0.00064512
  91         0.00023521
  92        -0.00009662
  93         0.00001745
  94         0.00000183
  95         0.00064510
  96         0.00023521
  97         0.00009594
  98         0.00002096
  99        -0.00000037
 100         0.00061015
 101         0.00017627
 102         0.00007195
 103        -0.00001271
 104        -0.00000135
Sym=     2a  
Ene=   -15.5830
Spin= Alpha
Occup=    2.00000
   1        -0.75375217
   2        -0.00229156
   3         0.00948343
   4        -0.00013206
   5         0.00742367
   6         0.00028095
   7         0.00006291
   8        -0.00353651
   9        -0.00013384
  10         0.00034252
  11         0.00000759
  12        -0.00002095
  13        -0.00003681
  14        -0.00000158
  15        -0.00013704
  16        -0.00149188
  17        -0.00389079
  18        -0.00079861
  19         0.00001712
  20         0.00001031
  21        -0.00200460
  22         0.00115194
  23         0.00006758
  24        -0.00011643
  25         0.00002280
  26         0.00000082
  27        -0.00003264
  28         0.00066071
  29         0.00012678
  30         0.00145209
  31         0.00377077
  32         0.00071644
  33         0.00021357
  34        -0.00000069
  35         0.00189688
  36         0.00119677
  37         0.00002203
  38         0.00010915
  39         0.00002537
  40        -0.00001339
  41        -0.00002848
  42         0.00060404
  43         0.65947693
  44         0.00214124
  45        -0.00865577
  46        -0.00011628
  47         0.00653878
  48         0.00024750
  49         0.00005734
  50        -0.00322395
  51        -0.00012204
  52        -0.00030309
  53        -0.00000670
  54         0.00001856
  55         0.00003203
  56         0.00000138
  57         0.00012678
  58         0.00145212
  59         0.00377076
  60        -0.00072361
  61         0.00018730
  62         0.00001586
  63        -0.00193821
  64         0.00112690
  65         0.00006585
  66         0.00011005
  67        -0.00002062
  68        -0.00000042
  69         0.00001507
  70        -0.00060468
  71        -0.00013704
  72        -0.00149188
  73        -0.00389079
  74         0.00079748
  75         0.00004622
  76        -0.00000791
  77         0.00196233
  78         0.00122422
  79         0.00002228
  80        -0.00011544
  81        -0.00002749
  82         0.00001500
  83         0.00001498
  84        -0.00066117
  85        -0.00030215
  86        -0.00045589
  87         0.00018902
  88         0.00004339
  89        -0.00000066
  90         0.00021847
  91         0.00042838
  92        -0.00017919
  93         0.00003447
  94         0.00000347
  95         0.00021846
  96         0.00042839
  97         0.00017785
  98         0.00004098
  99        -0.00000062
 100        -0.00030214
 101        -0.00045589
 102        -0.00019044
 103         0.00003648
 104         0.00000368
Sym=     3a  
Ene=   -11.2800
Spin= Alpha
Occup=    2.00000
   1        -0.00000000
   2         0.00000014
   3        -0.00000033
   4         0.00019381
   5         0.00000353
   6        -0.00000193
   7        -0.00112154
   8        -0.00002028
   9         0.00001281
  10        -0.00000003
  11         0.00000356
  12        -0.00000102
  13        -0.00000338
  14         0.00009333
  15        -0.50048905
  16        -0.00411021
  17         0.00265494
  18        -0.00037500
  19        -0.00017604
  20        -0.00000180
  21         0.00054372
  22        -0.00058655
  23        -0.00002869
  24         0.00012912
  25         0.00000065
  26        -0.00000804
  27         0.00000653
  28        -0.00005280
  29        -0.50059043
  30        -0.00411120
  31         0.00265634
  32        -0.00038109
  33         0.00016228
  34         0.00001100
  35         0.00052250
  36         0.00060662
  37         0.00001646
  38         0.00012914
  39         0.00000468
  40        -0.00000918
  41         0.00000274
  42         0.00005295
  43        -0.00000000
  44         0.00000013
  45        -0.00000033
  46         0.00019386
  47         0.00000353
  48        -0.00000193
  49        -0.00112196
  50        -0.00002060
  51         0.00001281
  52         0.00000012
  53        -0.00000356
  54         0.00000102
  55         0.00000335
  56        -0.00009338
  57         0.50073333
  58         0.00411229
  59        -0.00265702
  60        -0.00037520
  61        -0.00017619
  62        -0.00000184
  63         0.00054359
  64        -0.00058710
  65        -0.00002872
  66        -0.00012929
  67        -0.00000064
  68         0.00000804
  69        -0.00000650
  70         0.00005283
  71         0.50063096
  72         0.00411127
  73        -0.00265561
  74        -0.00038114
  75         0.00016235
  76         0.00001099
  77         0.00052236
  78         0.00060589
  79         0.00001644
  80        -0.00012912
  81        -0.00000469
  82         0.00000917
  83        -0.00000268
  84        -0.00005296
  85         0.00050752
  86        -0.00058661
  87         0.00017502
  88        -0.00000522
  89        -0.00000230
  90         0.00050761
  91        -0.00058665
  92         0.00017479
  93         0.00001160
  94        -0.00000166
  95        -0.00050767
  96         0.00058694
  97         0.00017514
  98        -0.00000524
  99        -0.00000230
 100        -0.00050759
 101         0.00058690
 102         0.00017478
 103         0.00001161
 104        -0.00000167
Sym=     4a  
Ene=   -11.2800
Spin= Alpha
Occup=    2.00000
   1        -0.00003061
   2         0.00099625
   3        -0.00230985
   4        -0.00000056
   5         0.00003006
   6         0.00000114
   7        -0.00001941
   8         0.00109998
   9         0.00004165
  10         0.00032149
  11         0.00000787
  12        -0.00001703
  13        -0.00010373
  14        -0.00000399
  15         0.50052933
  16         0.00377614
  17        -0.00236581
  18         0.00042608
  19         0.00038610
  20         0.00000914
  21         0.00052932
  22        -0.00029395
  23        -0.00001747
  24        -0.00026703
  25        -0.00000398
  26         0.00001028
  27         0.00015970
  28         0.00009443
  29         0.50063327
  30         0.00377692
  31        -0.00236623
  32         0.00043958
  33        -0.00037035
  34        -0.00001951
  35         0.00051900
  36         0.00031305
  37         0.00000554
  38        -0.00026704
  39        -0.00001072
  40         0.00001217
  41         0.00016605
  42        -0.00008233
  43        -0.00003059
  44         0.00099693
  45        -0.00231096
  46         0.00000051
  47        -0.00003052
  48        -0.00000117
  49         0.00001973
  50        -0.00110037
  51        -0.00004168
  52         0.00032159
  53         0.00000788
  54        -0.00001704
  55        -0.00010375
  56        -0.00000397
  57         0.50049131
  58         0.00377576
  59        -0.00236548
  60        -0.00042601
  61        -0.00038609
  62        -0.00000916
  63        -0.00052995
  64         0.00029411
  65         0.00001748
  66        -0.00026713
  67        -0.00000398
  68         0.00001027
  69         0.00015969
  70         0.00009445
  71         0.50038642
  72         0.00377497
  73        -0.00236505
  74        -0.00043943
  75         0.00037026
  76         0.00001949
  77        -0.00051867
  78        -0.00031322
  79        -0.00000553
  80        -0.00026686
  81        -0.00001071
  82         0.00001215
  83         0.00016607
  84        -0.00008228
  85        -0.00022675
  86         0.00101171
  87        -0.00020200
  88         0.00003132
  89         0.00000362
  90        -0.00022681
  91         0.00101197
  92        -0.00020082
  93        -0.00003869
  94         0.00000096
  95        -0.00022666
  96         0.00101180
  97         0.00020202
  98        -0.00003135
  99        -0.00000362
 100        -0.00022661
 101         0.00101154
 102         0.00020070
 103         0.00003866
 104        -0.00000097
Sym=     5a  
Ene=   -11.2790
Spin= Alpha
Occup=    2.00000
   1         0.00015411
   2         0.00164886
   3        -0.00498201
   4        -0.00000138
   5         0.00008943
   6         0.00000341
   7        -0.00003065
   8         0.00162743
   9         0.00006162
  10         0.00043155
  11         0.00001039
  12        -0.00002345
  13        -0.00012380
  14        -0.00000463
  15         0.50041651
  16         0.00432719
  17        -0.00214444
  18         0.00040788
  19         0.00018868
  20         0.00000212
  21         0.00188419
  22        -0.00012129
  23        -0.00002734
  24        -0.00065069
  25        -0.00000963
  26         0.00004081
  27         0.00000810
  28         0.00010927
  29        -0.50031271
  30        -0.00432638
  31         0.00214389
  32        -0.00041420
  33         0.00017352
  34         0.00001157
  35        -0.00187858
  36        -0.00018977
  37         0.00001556
  38         0.00065047
  39         0.00001790
  40        -0.00004317
  41        -0.00001586
  42         0.00010743
  43        -0.00015411
  44        -0.00164897
  45         0.00498153
  46        -0.00000180
  47         0.00008983
  48         0.00000343
  49        -0.00002725
  50         0.00162732
  51         0.00006160
  52        -0.00043149
  53        -0.00001039
  54         0.00002345
  55         0.00012376
  56         0.00000494
  57        -0.50114234
  58        -0.00433454
  59         0.00215532
  60         0.00040826
  61         0.00018878
  62         0.00000221
  63         0.00188402
  64        -0.00011611
  65        -0.00002715
  66         0.00065143
  67         0.00000965
  68        -0.00004088
  69        -0.00000793
  70        -0.00010932
  71         0.50124726
  72         0.00433536
  73        -0.00215588
  74        -0.00041485
  75         0.00017396
  76         0.00001166
  77        -0.00187875
  78        -0.00018476
  79         0.00001578
  80        -0.00065132
  81        -0.00001792
  82         0.00004323
  83         0.00001579
  84        -0.00010749
  85        -0.00012813
  86         0.00110041
  87        -0.00033377
  88         0.00015227
  89         0.00000976
  90         0.00012816
  91        -0.00110020
  92         0.00032810
  93         0.00016432
  94         0.00000222
  95         0.00012891
  96        -0.00110059
  97        -0.00033427
  98         0.00015232
  99         0.00000977
 100        -0.00012888
 101         0.00110080
 102         0.00032867
 103         0.00016441
 104         0.00000221
Sym=     6a  
Ene=   -11.2790
Spin= Alpha
Occup=    2.00000
   1        -0.00000013
   2        -0.00000136
   3         0.00000413
   4         0.00025107
   5         0.00000449
   6        -0.00000241
   7        -0.00204726
   8        -0.00003865
   9         0.00002332
  10        -0.00000050
  11         0.00000716
  12        -0.00000203
  13        -0.00000667
  14         0.00018810
  15        -0.50143174
  16        -0.00493286
  17         0.00690327
  18        -0.00030789
  19        -0.00017281
  20        -0.00000244
  21         0.00005346
  22        -0.00307465
  23        -0.00011633
  24         0.00048382
  25         0.00000804
  26        -0.00003405
  27         0.00007631
  28        -0.00003206
  29         0.50133033
  30         0.00493203
  31        -0.00690272
  32         0.00031378
  33        -0.00016144
  34        -0.00000969
  35         0.00005603
  36        -0.00307449
  37        -0.00011635
  38        -0.00048374
  39        -0.00001063
  40         0.00003483
  41        -0.00007383
  42        -0.00003673
  43         0.00000013
  44         0.00000137
  45        -0.00000413
  46        -0.00025102
  47        -0.00000467
  48         0.00000307
  49         0.00204709
  50         0.00003595
  51        -0.00002349
  52         0.00000022
  53         0.00000718
  54        -0.00000204
  55        -0.00000688
  56         0.00018807
  57        -0.50050005
  58        -0.00492485
  59         0.00689916
  60         0.00030716
  61         0.00017244
  62         0.00000302
  63        -0.00005648
  64         0.00307473
  65         0.00011636
  66         0.00048271
  67         0.00000798
  68        -0.00003397
  69         0.00007633
  70        -0.00003187
  71         0.50060226
  72         0.00492569
  73        -0.00689971
  74        -0.00031315
  75         0.00016116
  76         0.00001025
  77        -0.00005281
  78         0.00307491
  79         0.00011631
  80        -0.00048269
  81        -0.00001064
  82         0.00003474
  83        -0.00007386
  84        -0.00003656
  85         0.00045268
  86        -0.00023756
  87         0.00032474
  88        -0.00003411
  89        -0.00000520
  90        -0.00045258
  91         0.00023744
  92        -0.00032328
  93        -0.00004591
  94         0.00000217
  95         0.00045236
  96        -0.00023561
  97        -0.00032415
  98         0.00003386
  99         0.00000519
 100        -0.00045247
 101         0.00023574
 102         0.00032278
 103         0.00004565
 104        -0.00000218
Sym=     7a  
Ene=    -1.2945
Spin= Alpha
Occup=    2.00000
   1        -0.00986290
   2         0.41469682
   3        -0.06325362
   4         0.00307343
   5        -0.17277628
   6        -0.00653943
   7        -0.00038930
   8         0.02188514
   9         0.00082824
  10        -0.01108947
  11        -0.00023663
  12         0.00070819
  13         0.00041253
  14         0.00002317
  15        -0.00915548
  16         0.31547090
  17        -0.12549969
  18         0.12276890
  19        -0.00176532
  20        -0.00156153
  21        -0.05191146
  22        -0.00486874
  23         0.00044495
  24        -0.01001987
  25         0.00002468
  26         0.00040501
  27         0.00417228
  28         0.00759067
  29        -0.00915275
  30         0.31542097
  31        -0.12547373
  32         0.12259443
  33         0.00626873
  34        -0.00126031
  35        -0.05204274
  36         0.00296714
  37         0.00074291
  38        -0.01000670
  39        -0.00054061
  40         0.00056352
  41         0.00470443
  42        -0.00724872
  43        -0.00985931
  44         0.41448861
  45        -0.06323487
  46        -0.00307337
  47         0.17280144
  48         0.00654092
  49         0.00038904
  50        -0.02187478
  51        -0.00082791
  52        -0.01108781
  53        -0.00023669
  54         0.00070826
  55         0.00041019
  56         0.00002312
  57        -0.00915276
  58         0.31542169
  59        -0.12547389
  60        -0.12273847
  61         0.00179725
  62         0.00156257
  63         0.05190359
  64         0.00486142
  65        -0.00044572
  66        -0.01001778
  67         0.00002439
  68         0.00040514
  69         0.00417018
  70         0.00758350
  71        -0.00915548
  72         0.31547080
  73        -0.12549973
  74        -0.12262645
  75        -0.00623750
  76         0.00125990
  77         0.05205097
  78        -0.00297435
  79        -0.00074221
  80        -0.01000879
  81        -0.00054066
  82         0.00056377
  83         0.00470705
  84        -0.00725575
  85         0.05768737
  86        -0.02643768
  87         0.00612794
  88        -0.00150130
  89        -0.00013076
  90         0.05767981
  91        -0.02643386
  92         0.00606862
  93         0.00172347
  94        -0.00000878
  95         0.05767984
  96        -0.02643390
  97        -0.00612600
  98         0.00150126
  99         0.00013072
 100         0.05768741
 101        -0.02643767
 102        -0.00607057
 103        -0.00172358
 104         0.00000885
Sym=     8a  
Ene=    -1.1977
Spin= Alpha
Occup=    2.00000
   1         0.01310897
   2        -0.49418247
   3         0.04712029
   4        -0.00345596
   5         0.19428601
   6         0.00735352
   7         0.00024971
   8        -0.01403919
   9        -0.00053136
  10         0.01158637
  11         0.00027409
  12        -0.00064573
  13        -0.00290109
  14        -0.00011321
  15         0.00842057
  16        -0.24244553
  17         0.08626231
  18        -0.13237465
  19        -0.10928498
  20        -0.00250650
  21         0.06824881
  22         0.05083132
  23         0.00108638
  24         0.00673533
  25        -0.00027678
  26         0.00046305
  27        -0.01846803
  28        -0.01705136
  29        -0.00842334
  30         0.24257770
  31        -0.08631807
  32         0.13621602
  33        -0.10437536
  34        -0.00557857
  35        -0.07003201
  36         0.04830781
  37         0.00266687
  38        -0.00671466
  39        -0.00096885
  40        -0.00011141
  41         0.01964982
  42        -0.01566678
  43        -0.01311174
  44         0.49420684
  45        -0.04714294
  46        -0.00345763
  47         0.19443418
  48         0.00736008
  49         0.00024951
  50        -0.01403669
  51        -0.00053140
  52        -0.01159180
  53        -0.00027447
  54         0.00064628
  55         0.00289864
  56         0.00011318
  57        -0.00842338
  58         0.24257932
  59        -0.08631849
  60        -0.13241640
  61        -0.10927097
  62        -0.00250879
  63         0.06826865
  64         0.05082824
  65         0.00108572
  66        -0.00673924
  67         0.00027669
  68        -0.00046313
  69         0.01847126
  70         0.01705017
  71         0.00842056
  72        -0.24244508
  73         0.08626205
  74         0.13617559
  75        -0.10439128
  76        -0.00558086
  77        -0.07001242
  78         0.04831200
  79         0.00266598
  80         0.00671081
  81         0.00096866
  82         0.00011177
  83        -0.01964668
  84         0.01566831
  85        -0.05599184
  86         0.03022238
  87        -0.00745707
  88        -0.00081907
  89         0.00005945
  90         0.05603017
  91        -0.03023469
  92         0.00748380
  93        -0.00054640
  94        -0.00011109
  95         0.05603040
  96        -0.03023482
  97        -0.00745956
  98        -0.00081867
  99         0.00005937
 100        -0.05599168
 101         0.03022233
 102         0.00748137
 103        -0.00054688
 104        -0.00011124
Sym=     9a  
Ene=    -1.0457
Spin= Alpha
Occup=    2.00000
   1        -0.00000002
   2         0.00000049
   3         0.00000003
   4         0.19834025
   5         0.00361285
   6        -0.00224772
   7        -0.03192444
   8        -0.00058171
   9         0.00036452
  10         0.00001349
  11        -0.00069018
  12         0.00019358
  13         0.00065315
  14        -0.01813297
  15         0.01285910
  16        -0.44118742
  17         0.12629299
  18        -0.00693082
  19         0.08067472
  20         0.00313682
  21        -0.00960268
  22        -0.00577609
  23        -0.00010207
  24         0.00884368
  25        -0.00012258
  26        -0.00096790
  27         0.01179260
  28        -0.00443124
  29         0.01285915
  30        -0.44118990
  31         0.12629355
  32        -0.00405788
  33        -0.08087547
  34        -0.00297340
  35        -0.00980142
  36         0.00542203
  37         0.00031923
  38         0.00883652
  39         0.00024610
  40        -0.00107100
  41         0.01144359
  42         0.00525501
  43         0.00000002
  44         0.00000049
  45         0.00000005
  46         0.19834252
  47         0.00361170
  48        -0.00224992
  49        -0.03192501
  50        -0.00058179
  51         0.00036428
  52        -0.00001347
  53         0.00069023
  54        -0.00019380
  55        -0.00065313
  56         0.01813309
  57        -0.01285912
  58         0.44118817
  59        -0.12629304
  60        -0.00693100
  61         0.08067386
  62         0.00313590
  63        -0.00960276
  64        -0.00577557
  65        -0.00010324
  66        -0.00884367
  67         0.00012271
  68         0.00096818
  69        -0.01179261
  70         0.00443138
  71        -0.01285911
  72         0.44118782
  73        -0.12629292
  74        -0.00405741
  75        -0.08087581
  76        -0.00297543
  77        -0.00980152
  78         0.00542227
  79         0.00032105
  80        -0.00883646
  81        -0.00024613
  82         0.00107134
  83        -0.01144360
  84        -0.00525494
  85        -0.15012074
  86         0.06079944
  87        -0.01034514
  88         0.00770207
  89         0.00041500
  90        -0.15012151
  91         0.06079981
  92        -0.01006455
  93        -0.00807398
  94        -0.00018198
  95         0.15012102
  96        -0.06079959
  97        -0.01034517
  98         0.00770211
  99         0.00041489
 100         0.15012075
 101        -0.06079955
 102        -0.01006450
 103        -0.00807396
 104        -0.00018166
Sym=    10a  
Ene=    -0.8809
Spin= Alpha
Occup=    2.00000
   1         0.00000010
   2        -0.00001423
   3         0.00000135
   4         0.34824115
   5         0.00634950
   6        -0.00396198
   7        -0.05684012
   8        -0.00103569
   9         0.00065067
  10         0.00001512
  11        -0.00076215
  12         0.00021412
  13         0.00072111
  14        -0.02002277
  15         0.00815644
  16        -0.34467341
  17         0.03189998
  18        -0.03758104
  19        -0.17751307
  20        -0.00621374
  21        -0.00499836
  22         0.09868933
  23         0.00377249
  24         0.00569597
  25        -0.00027975
  26        -0.00004661
  27        -0.00469834
  28        -0.01214196
  29        -0.00815700
  30         0.34469685
  31        -0.03190416
  32         0.04385304
  33        -0.17600900
  34        -0.00716372
  35         0.00149017
  36         0.09880170
  37         0.00370080
  38        -0.00567808
  39        -0.00063012
  40         0.00030513
  41         0.00555781
  42        -0.01176345
  43         0.00000006
  44        -0.00001515
  45         0.00000141
  46        -0.34824386
  47        -0.00634659
  48         0.00396641
  49         0.05684083
  50         0.00103589
  51        -0.00065076
  52         0.00001507
  53        -0.00076231
  54         0.00021454
  55         0.00072108
  56        -0.02002279
  57         0.00815637
  58        -0.34467022
  59         0.03189959
  60         0.03758177
  61         0.17751487
  62         0.00621787
  63         0.00499835
  64        -0.09868965
  65        -0.00377326
  66         0.00569594
  67        -0.00028006
  68        -0.00004655
  69        -0.00469828
  70        -0.01214207
  71        -0.00815705
  72         0.34469769
  73        -0.03190419
  74        -0.04385098
  75         0.17600660
  76         0.00716548
  77        -0.00149132
  78        -0.09880074
  79        -0.00370018
  80        -0.00567810
  81        -0.00063030
  82         0.00030486
  83         0.00555756
  84        -0.01176339
  85        -0.19746418
  86         0.06975397
  87        -0.01282011
  88         0.00503812
  89         0.00034454
  90         0.19747720
  91        -0.06976004
  92         0.01263326
  93         0.00550274
  94         0.00005450
  95        -0.19746279
  96         0.06975339
  97         0.01282004
  98        -0.00503810
  99        -0.00034428
 100         0.19747797
 101        -0.06976022
 102        -0.01263329
 103        -0.00550282
 104        -0.00005396
Sym=    11a  
Ene=    -0.8744
Spin= Alpha
Occup=    2.00000
   1         0.00181587
   2        -0.29760113
   3         0.03390538
   4        -0.00199330
   5         0.11114835
   6         0.00420728
   7        -0.00003092
   8         0.00188536
   9         0.00007103
  10         0.00397412
  11         0.00010492
  12        -0.00018550
  13        -0.00193996
  14        -0.00007197
  15        -0.00700137
  16         0.27165398
  17        -0.04158453
  18        -0.21082712
  19        -0.23612416
  20        -0.00634373
  21         0.06523566
  22         0.07032874
  23         0.00185563
  24        -0.00117535
  25         0.00001152
  26         0.00093415
  27        -0.02089905
  28        -0.00575195
  29        -0.00699983
  30         0.27156851
  31        -0.04157196
  32        -0.21910754
  33         0.22832223
  34         0.01122940
  35         0.06771289
  36        -0.06792863
  37        -0.00337599
  38        -0.00118187
  39         0.00039218
  40         0.00082578
  41        -0.02126447
  42         0.00423493
  43         0.00181755
  44        -0.29759247
  45         0.03390540
  46         0.00199382
  47        -0.11124312
  48        -0.00421245
  49         0.00003120
  50        -0.00189122
  51        -0.00007117
  52         0.00397709
  53         0.00010513
  54        -0.00018582
  55        -0.00193922
  56        -0.00007200
  57        -0.00700060
  58         0.27160050
  59        -0.04157495
  60         0.21084291
  61         0.23614045
  62         0.00634555
  63        -0.06525381
  64        -0.07034279
  65        -0.00185647
  66        -0.00117480
  67         0.00001177
  68         0.00093465
  69        -0.02090424
  70        -0.00575118
  71        -0.00700064
  72         0.27162313
  73        -0.04158177
  74         0.21909283
  75        -0.22830849
  76        -0.01123098
  77        -0.06769470
  78         0.06791578
  79         0.00337595
  80        -0.00118240
  81         0.00039192
  82         0.00082591
  83        -0.02125939
  84         0.00423613
  85         0.15953491
  86        -0.07396790
  87         0.00830847
  88        -0.01020485
  89        -0.00048444
  90         0.15949047
  91        -0.07394941
  92         0.00793746
  93         0.01050037
  94         0.00029915
  95         0.15950951
  96        -0.07395608
  97        -0.00830699
  98         0.01020492
  99         0.00048433
 100         0.15951669
 101        -0.07396154
 102        -0.00793898
 103        -0.01050043
 104        -0.00029880
Sym=    12a  
Ene=    -0.6949
Spin= Alpha
Occup=    2.00000
   1         0.00000004
   2        -0.00000074
   3        -0.00000032
   4        -0.41666463
   5        -0.00759158
   6         0.00475163
   7         0.05986073
   8         0.00109139
   9        -0.00068464
  10        -0.00001331
  11         0.00068016
  12        -0.00019127
  13        -0.00064376
  14         0.01786566
  15         0.00147931
  16        -0.02166758
  17        -0.01217796
  18         0.20382632
  19         0.35415322
  20         0.01084946
  21        -0.05558707
  22        -0.10375459
  23        -0.00322977
  24        -0.00178986
  25         0.00026521
  26        -0.00035919
  27         0.00910668
  28         0.01098306
  29         0.00147936
  30        -0.02166807
  31        -0.01217874
  32         0.21629284
  33        -0.34649683
  34        -0.01566300
  35        -0.05924291
  36         0.10166195
  37         0.00454415
  38        -0.00177390
  39        -0.00054525
  40        -0.00013035
  41         0.00987341
  42        -0.01029668
  43        -0.00000002
  44        -0.00000318
  45        -0.00000015
  46        -0.41666561
  47        -0.00758705
  48         0.00475335
  49         0.05986133
  50         0.00109057
  51        -0.00068459
  52         0.00001328
  53        -0.00068036
  54         0.00019163
  55         0.00064325
  56        -0.01786564
  57        -0.00147930
  58         0.02167016
  59         0.01217806
  60         0.20382196
  61         0.35416083
  62         0.01085282
  63        -0.05558652
  64        -0.10375607
  65        -0.00323016
  66         0.00178977
  67        -0.00026526
  68         0.00035956
  69        -0.00910671
  70        -0.01098337
  71        -0.00147923
  72         0.02166549
  73         0.01217775
  74         0.21628507
  75        -0.34650680
  76        -0.01566468
  77        -0.05924090
  78         0.10166499
  79         0.00454384
  80         0.00177381
  81         0.00054507
  82         0.00013080
  83        -0.00987357
  84         0.01029669
  85        -0.01647167
  86         0.00928470
  87         0.00059750
  88         0.00426258
  89         0.00015299
  90        -0.01647397
  91         0.00928519
  92         0.00074864
  93        -0.00423813
  94        -0.00016867
  95         0.01646625
  96        -0.00928275
  97         0.00059776
  98         0.00426248
  99         0.00015302
 100         0.01646214
 101        -0.00928132
 102         0.00074915
 103        -0.00423786
 104        -0.00016868
Sym=    13a  
Ene=    -0.6672
Spin= Alpha
Occup=    2.00000
   1        -0.00111790
   2         0.10570272
   3         0.00326309
   4        -0.00028612
   5         0.01571402
   6         0.00059393
   7         0.00073803
   8        -0.04143663
   9        -0.00156756
  10        -0.00148618
  11        -0.00019790
  12        -0.00049475
  13         0.01552736
  14         0.00056071
  15        -0.00121353
  16        -0.01979152
  17         0.00219968
  18        -0.15957650
  19         0.35364427
  20         0.01523408
  21         0.02486802
  22        -0.09072439
  23        -0.00371268
  24         0.00294477
  25         0.00007132
  26        -0.00066667
  27         0.01134164
  28         0.00388761
  29        -0.00146483
  30        -0.00202753
  31         0.00069710
  32        -0.16826712
  33        -0.36837819
  34        -0.01182228
  35         0.02644407
  36         0.09360992
  37         0.00320384
  38         0.00324135
  39        -0.00012108
  40        -0.00062203
  41         0.01136128
  42        -0.00139079
  43        -0.00103130
  44         0.09210147
  45         0.00318988
  46         0.00042727
  47        -0.02431696
  48        -0.00091929
  49        -0.00076139
  50         0.04284357
  51         0.00162107
  52        -0.00152470
  53        -0.00021014
  54        -0.00053240
  55         0.01657913
  56         0.00059814
  57        -0.00146480
  58        -0.00202855
  59         0.00069753
  60         0.18126279
  61        -0.36199774
  62        -0.01581429
  63        -0.02975731
  64         0.09258249
  65         0.00384157
  66         0.00323865
  67         0.00001541
  68        -0.00066166
  69         0.01123153
  70         0.00219963
  71        -0.00121362
  72        -0.01978945
  73         0.00220008
  74         0.14690282
  75         0.35921840
  76         0.01173538
  77        -0.02162718
  78        -0.09156869
  79        -0.00318413
  80         0.00295005
  81        -0.00019335
  82        -0.00059173
  83         0.01159188
  84        -0.00306543
  85         0.28881734
  86        -0.08974825
  87         0.01269119
  88        -0.00352738
  89        -0.00028581
  90         0.31948005
  91        -0.09999514
  92         0.01370002
  93         0.00497478
  94         0.00002210
  95         0.31947617
  96        -0.09999416
  97        -0.01386791
  98         0.00447254
  99         0.00033536
 100         0.28882001
 101        -0.08974907
 102        -0.01255755
 103        -0.00398760
 104         0.00000176
Sym=    14a  
Ene=    -0.6671
Spin= Alpha
Occup=    2.00000
   1         0.00099627
   2        -0.15788848
   3        -0.00073128
   4        -0.00184191
   5         0.10350945
   6         0.00391792
   7         0.00032931
   8        -0.01850730
   9        -0.00070035
  10        -0.00051025
  11        -0.00015201
  12        -0.00046953
  13         0.01319250
  14         0.00047561
  15        -0.00304144
  16         0.21072930
  17        -0.01777583
  18        -0.26530110
  19         0.11452325
  20         0.00751213
  21         0.05939219
  22        -0.02594771
  23        -0.00169409
  24         0.00363108
  25        -0.00066440
  26         0.00003720
  27        -0.00085060
  28        -0.01996392
  29         0.00292943
  30        -0.21164944
  31         0.01789117
  32         0.24783402
  33         0.09352223
  34         0.00051846
  35        -0.05641935
  36        -0.02030847
  37        -0.00008199
  38        -0.00334155
  39        -0.00086398
  40         0.00033828
  41         0.00325204
  42        -0.02003147
  43        -0.00108660
  44         0.16618311
  45         0.00099658
  46        -0.00181291
  47         0.10188530
  48         0.00385754
  49         0.00026620
  50        -0.01496047
  51        -0.00056623
  52         0.00038223
  53         0.00013529
  54         0.00042662
  55        -0.01184438
  56        -0.00042696
  57         0.00292943
  58        -0.21164949
  59         0.01789122
  60        -0.25099943
  61         0.08443381
  62         0.00621493
  63         0.05710502
  64        -0.01824032
  65        -0.00137589
  66        -0.00337162
  67         0.00066785
  68        -0.00009282
  69         0.00180215
  70         0.02021860
  71        -0.00304145
  72         0.21072945
  73        -0.01777577
  74         0.26105659
  75         0.12411277
  76         0.00151439
  77        -0.05843098
  78        -0.02809434
  79        -0.00034916
  80         0.00360130
  81         0.00085043
  82        -0.00038988
  83        -0.00228463
  84         0.01984557
  85         0.37761955
  86        -0.12589620
  87         0.01455812
  88        -0.01141643
  89        -0.00060528
  90        -0.35205918
  91         0.11792648
  92        -0.01303952
  93        -0.01156368
  94        -0.00027796
  95        -0.35205944
  96         0.11792655
  97         0.01344237
  98        -0.01108120
  99        -0.00057886
 100         0.37761976
 101        -0.12589627
 102        -0.01414264
 103        -0.01193939
 104        -0.00027805
Sym=    15a  
Ene=    -0.6004
Spin= Alpha
Occup=    2.00000
   1         0.00000000
   2         0.00000028
   3        -0.00000006
   4        -0.11369166
   5        -0.00207120
   6         0.00129332
   7         0.02958563
   8         0.00053905
   9        -0.00033862
  10        -0.00001162
  11         0.00059169
  12        -0.00016667
  13        -0.00056009
  14         0.01554962
  15         0.00278522
  16         0.08290543
  17        -0.00721270
  18         0.29647865
  19        -0.25585839
  20        -0.01321493
  21        -0.04799056
  22         0.06239283
  23         0.00292688
  24        -0.00127243
  25         0.00024612
  26         0.00054866
  27        -0.01331928
  28         0.00298896
  29         0.00278523
  30         0.08290536
  31        -0.00721296
  32         0.28718761
  33         0.26649409
  34         0.00654411
  35        -0.04574082
  36        -0.06410088
  37        -0.00185909
  38        -0.00126728
  39        -0.00001797
  40         0.00062254
  41        -0.01306974
  42        -0.00393764
  43        -0.00000001
  44        -0.00000031
  45        -0.00000000
  46        -0.11369289
  47        -0.00207031
  48         0.00129244
  49         0.02958611
  50         0.00053928
  51        -0.00033847
  52         0.00001160
  53        -0.00059181
  54         0.00016678
  55         0.00056014
  56        -0.01554971
  57        -0.00278523
  58        -0.08290500
  59         0.00721282
  60         0.29647987
  61        -0.25586007
  62        -0.01321775
  63        -0.04799077
  64         0.06239358
  65         0.00292693
  66         0.00127243
  67        -0.00024603
  68        -0.00054891
  69         0.01331937
  70        -0.00298908
  71        -0.00278521
  72        -0.08290589
  73         0.00721262
  74         0.28718681
  75         0.26649512
  76         0.00654375
  77        -0.04574052
  78        -0.06410088
  79        -0.00185825
  80         0.00126727
  81         0.00001752
  82        -0.00062277
  83         0.01306980
  84         0.00393757
  85        -0.32918835
  86         0.10100953
  87        -0.01226230
  88         0.00477378
  89         0.00032752
  90        -0.32918947
  91         0.10100982
  92        -0.01208460
  93        -0.00521741
  94        -0.00005075
  95         0.32919056
  96        -0.10101015
  97        -0.01226238
  98         0.00477382
  99         0.00032736
 100         0.32918926
 101        -0.10100972
 102        -0.01208460
 103        -0.00521739
 104        -0.00005028
Sym=    16a  
Ene=    -0.5414
Spin= Alpha
Occup=    2.00000
   1        -0.00000001
   2        -0.00000021
   3         0.00000023
   4        -0.34714412
   5        -0.00632487
   6         0.00396267
   7         0.04936412
   8         0.00089982
   9        -0.00056521
  10        -0.00001450
  11         0.00073771
  12        -0.00020816
  13        -0.00069836
  14         0.01938512
  15         0.00369548
  16        -0.02322986
  17        -0.01523946
  18         0.33902342
  19         0.01455676
  20        -0.00355010
  21        -0.06159074
  22        -0.00193937
  23         0.00066968
  24        -0.00299818
  25         0.00130525
  26         0.00006271
  27        -0.00742793
  28         0.03398523
  29        -0.00369549
  30         0.02323065
  31         0.01523984
  32        -0.33931886
  33         0.00219898
  34         0.00420022
  35         0.06161980
  36         0.00030503
  37        -0.00073423
  38         0.00294690
  39         0.00129913
  40        -0.00079752
  41         0.00496324
  42         0.03442692
  43         0.00000002
  44         0.00000125
  45         0.00000011
  46         0.34714208
  47         0.00632114
  48        -0.00395252
  49        -0.04936437
  50        -0.00090005
  51         0.00056511
  52        -0.00001439
  53         0.00073786
  54        -0.00020765
  55        -0.00069827
  56         0.01938495
  57         0.00369547
  58        -0.02323160
  59        -0.01523922
  60        -0.33902030
  61        -0.01455543
  62         0.00356128
  63         0.06158986
  64         0.00193849
  65        -0.00067009
  66        -0.00299815
  67         0.00130481
  68         0.00006289
  69        -0.00742805
  70         0.03398525
  71        -0.00369550
  72         0.02323089
  73         0.01523989
  74         0.33932070
  75        -0.00220085
  76        -0.00419089
  77        -0.06161953
  78        -0.00030479
  79         0.00073425
  80         0.00294690
  81         0.00129827
  82        -0.00079782
  83         0.00496339
  84         0.03442703
  85        -0.33525521
  86         0.08476834
  87        -0.00800674
  88         0.00869313
  89         0.00042372
  90         0.33525134
  91        -0.08476738
  92         0.00769223
  93         0.00897913
  94         0.00024532
  95        -0.33525432
  96         0.08476819
  97         0.00800672
  98        -0.00869308
  99        -0.00042339
 100         0.33525255
 101        -0.08476783
 102        -0.00769226
 103        -0.00897917
 104        -0.00024476
Sym=    17a  
Ene=    -0.5601
Spin= Alpha
Occup=    1.95951
   1         0.00000003
   2        -0.00000323
   3        -0.00000206
   4        -0.00440061
   5         0.01372483
   6        -0.36479666
   7         0.00023430
   8        -0.00073928
   9         0.01967440
  10         0.00127763
  11        -0.00033780
  12         0.01946125
  13         0.00072888
  14         0.00024783
  15        -0.00000040
  16        -0.00002611
  17         0.00001020
  18        -0.00384085
  19         0.01193382
  20        -0.31732316
  21         0.00037808
  22        -0.00116950
  23         0.03107748
  24         0.00072646
  25        -0.01766288
  26         0.00545561
  27        -0.00000776
  28         0.00073117
  29         0.00000068
  30        -0.00002849
  31         0.00000210
  32        -0.00385779
  33         0.01194026
  34        -0.31732537
  35         0.00037708
  36        -0.00117163
  37         0.03107685
  38        -0.00003073
  39        -0.01746231
  40        -0.00611068
  41        -0.00044095
  42         0.00058447
  43        -0.00000001
  44         0.00000381
  45         0.00000226
  46        -0.00439692
  47         0.01372657
  48        -0.36480078
  49         0.00023341
  50        -0.00073947
  51         0.01967467
  52        -0.00127783
  53         0.00033780
  54        -0.01946127
  55        -0.00072901
  56        -0.00024785
  57        -0.00000059
  58         0.00002143
  59        -0.00000763
  60        -0.00385293
  61         0.01193928
  62        -0.31732572
  63         0.00037881
  64        -0.00117050
  65         0.03107687
  66        -0.00072728
  67         0.01766316
  68        -0.00545531
  69         0.00000754
  70        -0.00073037
  71         0.00000029
  72         0.00002906
  73        -0.00000467
  74        -0.00384740
  75         0.01194232
  76        -0.31732287
  77         0.00037656
  78        -0.00117218
  79         0.03107740
  80         0.00003175
  81         0.01746211
  82         0.00611084
  83         0.00044117
  84        -0.00058341
  85        -0.00000758
  86         0.00000270
  87        -0.00008054
  88         0.00024968
  89        -0.00662922
  90         0.00000611
  91        -0.00000326
  92        -0.00008011
  93         0.00024976
  94        -0.00662928
  95        -0.00000667
  96         0.00000315
  97        -0.00007993
  98         0.00024920
  99        -0.00662931
 100         0.00000744
 101        -0.00000278
 102        -0.00008078
 103         0.00024916
 104        -0.00662924
Sym=    18a  
Ene=    -0.5071
Spin= Alpha
Occup=    1.98280
   1         0.01048353
   2         0.35032458
   3        -0.04564495
   4        -0.00973481
   5         0.54726018
   6         0.02070737
   7        -0.00068391
   8         0.03843920
   9         0.00145523
  10         0.01217234
  11         0.00015294
  12        -0.00115786
  13         0.00953596
  14         0.00033435
  15        -0.00133186
  16        -0.14408226
  17        -0.00044897
  18        -0.08254216
  19        -0.00054169
  20         0.00097433
  21         0.09327928
  22         0.05663751
  23         0.00100200
  24        -0.00045852
  25         0.00068821
  26         0.00072602
  27        -0.02215783
  28         0.01143134
  29         0.00132701
  30         0.14399311
  31         0.00058538
  32         0.08230116
  33         0.00276971
  34        -0.00089848
  35        -0.09513524
  36         0.05312392
  37         0.00315060
  38         0.00044600
  39         0.00024039
  40        -0.00098680
  41         0.02123402
  42         0.01296463
  43        -0.01046961
  44        -0.34978461
  45         0.04571347
  46        -0.00971278
  47         0.54623618
  48         0.02067192
  49        -0.00068290
  50         0.03834026
  51         0.00145182
  52        -0.01214669
  53        -0.00015239
  54         0.00115596
  55        -0.00952374
  56        -0.00033373
  57         0.00132696
  58         0.14399635
  59         0.00058486
  60        -0.08235122
  61        -0.00023410
  62         0.00098929
  63         0.09318495
  64         0.05655660
  65         0.00100048
  66         0.00046418
  67        -0.00068671
  68        -0.00072492
  69         0.02211186
  70        -0.01140359
  71        -0.00133187
  72        -0.14408243
  73        -0.00044931
  74         0.08250731
  75         0.00246710
  76        -0.00090733
  77        -0.09523294
  78         0.05320232
  79         0.00315508
  80        -0.00044025
  81        -0.00024084
  82         0.00098819
  83        -0.02127790
  84        -0.01299514
  85        -0.03467648
  86         0.02727987
  87        -0.00126855
  88        -0.00272391
  89        -0.00008709
  90         0.03448613
  91        -0.02727018
  92         0.00136042
  93        -0.00266655
  94        -0.00011711
  95         0.03448486
  96        -0.02726994
  97        -0.00126473
  98        -0.00271446
  99        -0.00008663
 100        -0.03467593
 101         0.02727987
 102         0.00136462
 103        -0.00267592
 104        -0.00011729
Sym=    19a  
Ene=    -0.4190
Spin= Alpha
Occup=    1.90272
   1        -0.00000007
   2        -0.00000343
   3         0.00000050
   4        -0.00623230
   5         0.01941997
   6        -0.51604729
   7        -0.00002048
   8         0.00005111
   9        -0.00134589
  10         0.00133906
  11        -0.00035425
  12         0.02039755
  13         0.00076410
  14         0.00026025
  15        -0.00000002
  16        -0.00001318
  17        -0.00000166
  18        -0.00288279
  19         0.00894328
  20        -0.23791619
  21        -0.00011447
  22         0.00036369
  23        -0.00953599
  24        -0.00074111
  25        -0.02185402
  26        -0.01838315
  27        -0.00095708
  28         0.00059835
  29        -0.00000009
  30         0.00001694
  31         0.00000374
  32         0.00288906
  33        -0.00895605
  34         0.23792161
  35         0.00011395
  36        -0.00035487
  37         0.00953728
  38        -0.00161855
  39         0.02247758
  40        -0.01755597
  41        -0.00038915
  42        -0.00106003
  43        -0.00000007
  44        -0.00000396
  45        -0.00000041
  46         0.00624026
  47        -0.01942386
  48         0.51604190
  49         0.00001886
  50        -0.00005153
  51         0.00134533
  52         0.00133929
  53        -0.00035423
  54         0.02039702
  55         0.00076422
  56         0.00026049
  57         0.00000009
  58        -0.00001163
  59        -0.00000216
  60         0.00288525
  61        -0.00894606
  62         0.23791388
  63         0.00011373
  64        -0.00036282
  65         0.00953678
  66        -0.00074096
  67        -0.02185383
  68        -0.01838324
  69        -0.00095751
  70         0.00059878
  71         0.00000008
  72         0.00001656
  73         0.00000146
  74        -0.00288803
  75         0.00895667
  76        -0.23792405
  77        -0.00011337
  78         0.00035432
  79        -0.00953659
  80        -0.00161808
  81         0.02247776
  82        -0.01755592
  83        -0.00038931
  84        -0.00106018
  85        -0.00000044
  86         0.00000056
  87        -0.00006190
  88         0.00019161
  89        -0.00509892
  90        -0.00000308
  91         0.00000138
  92         0.00006170
  93        -0.00019223
  94         0.00509905
  95         0.00000093
  96        -0.00000177
  97         0.00006166
  98        -0.00019144
  99         0.00509890
 100        -0.00000120
 101        -0.00000157
 102        -0.00006199
 103         0.00019190
 104        -0.00509910
Sym=    20a  
Ene=    -0.4769
Spin= Alpha
Occup=    1.98201
   1        -0.00689000
   2        -0.35168752
   3        -0.02326611
   4         0.00945605
   5        -0.53160901
   6        -0.02011680
   7         0.00102146
   8        -0.05741144
   9        -0.00217214
  10        -0.01281172
  11        -0.00019161
  12         0.00110788
  13        -0.00712642
  14        -0.00024707
  15         0.00323373
  16         0.04243956
  17        -0.06916395
  18         0.07898418
  19         0.14173431
  20         0.00436345
  21        -0.04392491
  22        -0.03705237
  23        -0.00086179
  24        -0.00238009
  25        -0.00091263
  26        -0.00050723
  27         0.02264320
  28        -0.01564822
  29         0.00323794
  30         0.04267425
  31        -0.06915355
  32         0.08407034
  33        -0.13874793
  34        -0.00624939
  35        -0.04537670
  36         0.03551948
  37         0.00188713
  38        -0.00240228
  39         0.00033946
  40        -0.00086307
  41         0.02149340
  42         0.01726936
  43        -0.00690749
  44        -0.35244625
  45        -0.02315896
  46        -0.00946962
  47         0.53256846
  48         0.02015639
  49        -0.00102362
  50         0.05749303
  51         0.00217572
  52        -0.01283240
  53        -0.00019204
  54         0.00111005
  55        -0.00714340
  56        -0.00024749
  57         0.00323788
  58         0.04267763
  59        -0.06915394
  60        -0.07908588
  61        -0.14172469
  62        -0.00436436
  63         0.04408472
  64         0.03715094
  65         0.00086299
  66        -0.00237765
  67        -0.00091415
  68        -0.00050865
  69         0.02268015
  70        -0.01567418
  71         0.00323374
  72         0.04243834
  73        -0.06916419
  74        -0.08397303
  75         0.13876459
  76         0.00624890
  77         0.04521431
  78        -0.03542792
  79        -0.00188072
  80        -0.00240474
  81         0.00033864
  82        -0.00086119
  83         0.02145845
  84         0.01724068
  85         0.10616029
  86        -0.00826471
  87         0.00206045
  88         0.00446761
  89         0.00014286
  90         0.10625085
  91        -0.00832249
  92         0.00222051
  93        -0.00439327
  94        -0.00019242
  95         0.10624937
  96        -0.00832223
  97        -0.00206285
  98        -0.00447139
  99        -0.00014304
 100         0.10616127
 101        -0.00826479
 102        -0.00221799
 103         0.00438962
 104         0.00019226
Sym=    21a  
Ene=    -0.3449
Spin= Alpha
Occup=    1.90694
   1         0.00000018
   2         0.00000893
   3         0.00000432
   4        -0.00000173
   5         0.00001146
   6        -0.00000441
   7        -0.00000001
   8         0.00000116
   9         0.00000005
  10        -0.00042676
  11         0.02158206
  12         0.00040277
  13         0.00027593
  14        -0.00080732
  15        -0.00000004
  16        -0.00001828
  17         0.00000214
  18        -0.00533484
  19         0.01660072
  20        -0.44137575
  21        -0.00013507
  22         0.00042099
  23        -0.01119228
  24         0.00118865
  25        -0.00412813
  26         0.01690152
  27         0.00058675
  28         0.00036115
  29        -0.00000013
  30        -0.00002545
  31         0.00000252
  32        -0.00534780
  33         0.01660562
  34        -0.44137059
  35        -0.00013482
  36         0.00042461
  37        -0.01119207
  38        -0.00103813
  39        -0.00353863
  40        -0.01704477
  41        -0.00068467
  42        -0.00007355
  43         0.00000027
  44         0.00001547
  45         0.00000283
  46         0.00000182
  47        -0.00001744
  48         0.00000425
  49         0.00000002
  50        -0.00000131
  51        -0.00000001
  52        -0.00042706
  53         0.02158212
  54         0.00040277
  55         0.00027648
  56        -0.00080745
  57         0.00000003
  58        -0.00001642
  59         0.00000263
  60         0.00534083
  61        -0.01660870
  62         0.44137473
  63         0.00013369
  64        -0.00041859
  65         0.01119248
  66         0.00118945
  67        -0.00412820
  68         0.01690141
  69         0.00058673
  70         0.00036121
  71        -0.00000027
  72        -0.00002368
  73         0.00000321
  74         0.00534478
  75        -0.01660918
  76         0.44137066
  77         0.00013622
  78        -0.00042211
  79         0.01119207
  80        -0.00103896
  81        -0.00353857
  82        -0.01704474
  83        -0.00068468
  84        -0.00007366
  85        -0.00000772
  86         0.00000230
  87        -0.00011887
  88         0.00036887
  89        -0.00980274
  90         0.00000254
  91        -0.00000066
  92        -0.00011855
  93         0.00036905
  94        -0.00980263
  95        -0.00000020
  96        -0.00000168
  97         0.00011835
  98        -0.00036861
  99         0.00980273
 100        -0.00000565
 101         0.00000390
 102         0.00011922
 103        -0.00036862
 104         0.00980264
Sym=    22a  
Ene=     0.1386
Spin= Alpha
Occup=    0.10532
   1        -0.00000039
   2        -0.00000405
   3         0.00000086
   4        -0.00871707
   5         0.02715911
   6        -0.72176102
   7         0.00113530
   8        -0.00352666
   9         0.09372789
  10        -0.00042877
  11         0.00011330
  12        -0.00652601
  13        -0.00024449
  14        -0.00008263
  15         0.00000085
  16         0.00001039
  17         0.00000977
  18         0.00395757
  19        -0.01228102
  20         0.32686858
  21        -0.00013320
  22         0.00042790
  23        -0.01140413
  24        -0.00145570
  25        -0.00753096
  26        -0.02479757
  27        -0.00102531
  28        -0.00001764
  29         0.00000078
  30         0.00001257
  31         0.00000646
  32         0.00396358
  33        -0.01230573
  34         0.32686984
  35        -0.00013260
  36         0.00042724
  37        -0.01139888
  38         0.00177944
  39        -0.00838691
  40         0.02449948
  41         0.00082200
  42         0.00061419
  43         0.00000043
  44         0.00000403
  45        -0.00000105
  46        -0.00872259
  47         0.02716518
  48        -0.72176896
  49         0.00113388
  50        -0.00352779
  51         0.09372908
  52         0.00042940
  53        -0.00011313
  54         0.00653338
  55         0.00024481
  56         0.00008394
  57        -0.00000028
  58        -0.00000820
  59        -0.00000980
  60         0.00396148
  61        -0.01228986
  62         0.32686806
  63        -0.00013318
  64         0.00042767
  65        -0.01139907
  66         0.00145723
  67         0.00753142
  68         0.02479697
  69         0.00102449
  70         0.00001846
  71        -0.00000113
  72        -0.00001279
  73        -0.00000585
  74         0.00396168
  75        -0.01230932
  76         0.32687034
  77        -0.00013276
  78         0.00042688
  79        -0.01140418
  80        -0.00178035
  81         0.00838647
  82        -0.02449996
  83        -0.00082105
  84        -0.00061338
  85        -0.00000339
  86         0.00000029
  87         0.00006183
  88        -0.00019157
  89         0.00509325
  90        -0.00000287
  91         0.00000443
  92         0.00006141
  93        -0.00019184
  94         0.00509320
  95         0.00000215
  96        -0.00000497
  97         0.00006131
  98        -0.00019128
  99         0.00509318
 100         0.00000350
 101         0.00000069
 102         0.00006203
 103        -0.00019147
 104         0.00509329
Sym=    23a  
Ene=     0.1485
Spin= Alpha
Occup=    0.09228
   1        -0.00000052
   2         0.00001356
   3         0.00003118
   4         0.00000109
   5        -0.00000991
   6         0.00000125
   7        -0.00000035
   8        -0.00001257
   9        -0.00000076
  10        -0.00053772
  11         0.02707306
  12         0.00050522
  13         0.00034544
  14        -0.00101289
  15        -0.00000215
  16        -0.00003596
  17        -0.00004001
  18        -0.00730311
  19         0.02272375
  20        -0.60391869
  21        -0.00013326
  22         0.00036882
  23        -0.00944659
  24        -0.00087121
  25        -0.01526248
  26        -0.01812700
  27        -0.00086607
  28         0.00035323
  29         0.00000212
  30         0.00003815
  31         0.00003361
  32         0.00731899
  33        -0.02271322
  34         0.60391720
  35         0.00012805
  36        -0.00034068
  37         0.00944870
  38        -0.00147195
  39         0.01588169
  40        -0.01754726
  41        -0.00046926
  42        -0.00081094
  43         0.00000155
  44        -0.00000539
  45        -0.00002727
  46         0.00000333
  47        -0.00002253
  48         0.00000102
  49        -0.00000031
  50         0.00000183
  51        -0.00000058
  52         0.00053923
  53        -0.02707284
  54        -0.00050532
  55        -0.00034706
  56         0.00101306
  57         0.00000126
  58         0.00002622
  59         0.00003179
  60        -0.00731006
  61         0.02273332
  62        -0.60391735
  63        -0.00012845
  64         0.00036884
  65        -0.00944775
  66         0.00086839
  67         0.01526255
  68         0.01812733
  69         0.00086732
  70        -0.00035439
  71        -0.00000285
  72        -0.00004139
  73        -0.00003788
  74         0.00731572
  75        -0.02271936
  76         0.60391715
  77         0.00012899
  78        -0.00034203
  79         0.00944771
  80         0.00146974
  81        -0.01588155
  82         0.01754718
  83         0.00047026
  84         0.00081210
  85         0.00001559
  86        -0.00000163
  87        -0.00008217
  88         0.00025457
  89        -0.00676181
  90        -0.00001000
  91         0.00000918
  92         0.00008169
  93        -0.00025462
  94         0.00676180
  95        -0.00000731
  96         0.00000887
  97        -0.00008152
  98         0.00025422
  99        -0.00676184
 100         0.00001551
 101         0.00000021
 102         0.00008247
 103        -0.00025407
 104         0.00676180
Sym=    24a  
Ene=     0.9884
Spin= Alpha
Occup=    0.01423
   1         0.16705743
   2         0.80126610
   3        -0.77157630
   4        -0.01671973
   5         0.93996159
   6         0.03556558
   7         0.01817001
   8        -1.02143876
   9        -0.03864966
  10        -0.04885467
  11         0.00010937
  12         0.00721474
  13        -0.10561863
  14        -0.00376750
  15         0.01195753
  16         0.04782633
  17        -0.20204256
  18         0.12994822
  19         0.10267300
  20         0.00230034
  21        -0.09087748
  22        -0.07517801
  23        -0.00172856
  24        -0.00702450
  25        -0.00242820
  26        -0.00015562
  27         0.03247394
  28        -0.05017483
  29         0.01193820
  30         0.04749588
  31        -0.20209387
  32         0.13329948
  33        -0.09796064
  34        -0.00530464
  35        -0.09312498
  36         0.07159145
  37         0.00382468
  38        -0.00710584
  39         0.00147462
  40        -0.00125364
  41         0.02873092
  42         0.05235855
  43         0.16695385
  44         0.80075341
  45        -0.77132368
  46         0.01668955
  47        -0.93883121
  48        -0.03552965
  49        -0.01814561
  50         1.02026550
  51         0.03861218
  52        -0.04880481
  53         0.00011027
  54         0.00720837
  55        -0.10550245
  56        -0.00376129
  57         0.01193868
  58         0.04750461
  59        -0.20209038
  60        -0.12973729
  61        -0.10275863
  62        -0.00229616
  63         0.09051764
  64         0.07493991
  65         0.00172219
  66        -0.00702897
  67        -0.00242653
  68        -0.00015423
  69         0.03242334
  70        -0.05014546
  71         0.01195743
  72         0.04782352
  73        -0.20204506
  74        -0.13351434
  75         0.09787422
  76         0.00529442
  77         0.09349342
  78        -0.07181765
  79        -0.00383511
  80        -0.00710125
  81         0.00147432
  82        -0.00125635
  83         0.02877942
  84         0.05239221
  85         0.16753935
  86         0.00869439
  87        -0.00487110
  88         0.00953718
  89         0.00041787
  90         0.16753132
  91         0.00876981
  92        -0.00452812
  93        -0.00969806
  94        -0.00031001
  95         0.16753074
  96         0.00876978
  97         0.00486999
  98        -0.00952690
  99        -0.00041742
 100         0.16754079
 101         0.00869423
 102         0.00452876
 103         0.00970847
 104         0.00031023
Sym=    25a  
Ene=     0.4229
Spin= Alpha
Occup=    0.04024
   1        -0.00000072
   2        -0.00000412
   3         0.00000094
   4        -0.00828121
   5         0.02586204
   6        -0.68736528
   7         0.00220774
   8        -0.00682447
   9         0.18143255
  10        -0.00194820
  11         0.00051485
  12        -0.02966890
  13        -0.00111147
  14        -0.00037889
  15         0.00000553
  16         0.00006150
  17         0.00003142
  18         0.00623380
  19        -0.01936184
  20         0.51476600
  21         0.00032822
  22        -0.00094764
  23         0.02483556
  24         0.00011343
  25         0.00741119
  26         0.00390746
  27         0.00023755
  28        -0.00023195
  29        -0.00000112
  30        -0.00003646
  31        -0.00004061
  32        -0.00625142
  33         0.01935396
  34        -0.51475454
  35        -0.00031760
  36         0.00092869
  37        -0.02484296
  38         0.00039073
  39        -0.00754210
  40         0.00363265
  41         0.00004409
  42         0.00032612
  43        -0.00000122
  44        -0.00000551
  45         0.00000467
  46         0.00828762
  47        -0.02586327
  48         0.68736694
  49        -0.00219733
  50         0.00682554
  51        -0.18143941
  52        -0.00194970
  53         0.00051480
  54        -0.02968473
  55        -0.00111224
  56        -0.00037572
  57         0.00000006
  58         0.00002854
  59         0.00003951
  60        -0.00624742
  61         0.01938174
  62        -0.51475376
  63        -0.00031773
  64         0.00093956
  65        -0.02484228
  66         0.00010224
  67         0.00741117
  68         0.00391109
  69         0.00023888
  70        -0.00023297
  71        -0.00000633
  72        -0.00006341
  73        -0.00002875
  74         0.00624101
  75        -0.01937226
  76         0.51476538
  77         0.00032415
  78        -0.00092204
  79         0.02483673
  80         0.00038024
  81        -0.00754205
  82         0.00363044
  83         0.00004493
  84         0.00032725
  85        -0.00001744
  86         0.00000415
  87         0.00005425
  88        -0.00016782
  89         0.00444638
  90         0.00000612
  91        -0.00000996
  92        -0.00005292
  93         0.00016790
  94        -0.00444643
  95        -0.00000534
  96         0.00001055
  97        -0.00005273
  98         0.00016668
  99        -0.00444645
 100         0.00001549
 101        -0.00000146
 102         0.00005460
 103        -0.00016661
 104         0.00444642
Sym=    26a  
Ene=     0.9827
Spin= Alpha
Occup=    0.01395
   1         0.15471770
   2         0.81542685
   3        -0.47554732
   4        -0.01595488
   5         0.89701226
   6         0.03394529
   7         0.01827200
   8        -1.02718753
   9        -0.03887265
  10        -0.04116077
  11         0.00034270
  12         0.00696467
  13        -0.11222114
  14        -0.00401118
  15         0.01422118
  16         0.20345270
  17        -0.02041844
  18         0.10533909
  19        -0.08637668
  20        -0.00452880
  21        -0.31671405
  22        -0.16363557
  23        -0.00232434
  24         0.00471034
  25        -0.00100112
  26        -0.00126243
  27         0.03146662
  28        -0.01909492
  29        -0.01423456
  30        -0.20345680
  31         0.02065444
  32        -0.10225250
  33        -0.09011862
  34        -0.00214661
  35         0.32244110
  36        -0.15203877
  37        -0.00962150
  38        -0.00467549
  39        -0.00053904
  40         0.00169534
  41        -0.03003430
  42        -0.02134412
  43        -0.15498513
  44        -0.81680423
  45         0.47672925
  46        -0.01596218
  47         0.89795526
  48         0.03398404
  49         0.01828941
  50        -1.02835848
  51        -0.03892228
  52         0.04120981
  53        -0.00034350
  54        -0.00697419
  55         0.11235894
  56         0.00401395
  57        -0.01423501
  58        -0.20346501
  59         0.02065152
  60         0.10539970
  61        -0.08632901
  62        -0.00452629
  63        -0.31682414
  64        -0.16368859
  65        -0.00232765
  66        -0.00470591
  67         0.00100243
  68         0.00126254
  69        -0.03149245
  70         0.01913533
  71         0.01422115
  72         0.20345296
  73        -0.02041705
  74        -0.10219742
  75        -0.09016159
  76        -0.00214939
  77         0.32232792
  78        -0.15199165
  79        -0.00962092
  80         0.00468013
  81         0.00053658
  82        -0.00169421
  83         0.03001135
  84         0.02130201
  85         0.04417315
  86        -0.08158309
  87         0.00129818
  88         0.00433940
  89         0.00014743
  90        -0.04436541
  91         0.08159519
  92        -0.00144861
  93         0.00429485
  94         0.00017948
  95        -0.04436520
  96         0.08159529
  97         0.00129504
  98         0.00434495
  99         0.00014744
 100         0.04417186
 101        -0.08158290
 102        -0.00145167
 103         0.00428927
 104         0.00017886
Sym=    27a  
Ene=     0.2099
Spin= Alpha
Occup=    0.00000
   1         0.00000002
   2        -0.00000033
   3        -0.00000209
   4         0.01005700
   5         0.00018298
   6        -0.00012323
   7        -0.11022363
   8        -0.00200600
   9         0.00125233
  10        -0.00000403
  11         0.00020826
  12        -0.00005925
  13        -0.00019722
  14         0.00547252
  15         0.01619319
  16        -0.04786755
  17        -0.76012779
  18         0.19625167
  19        -0.09404542
  20        -0.00590258
  21         0.40319848
  22        -0.31457605
  23        -0.01670369
  24         0.00724668
  25         0.00028314
  26        -0.00033036
  27        -0.00444746
  28         0.00206784
  29         0.01619311
  30        -0.04786691
  31        -0.76012581
  32         0.19277873
  33         0.10113379
  34         0.00146846
  35         0.39174341
  36         0.32906065
  37         0.00764509
  38         0.00725001
  39         0.00011372
  40        -0.00028323
  41        -0.00428674
  42        -0.00239317
  43        -0.00000004
  44        -0.00000024
  45         0.00000022
  46         0.01005733
  47         0.00018313
  48        -0.00010920
  49        -0.11022445
  50        -0.00200968
  51         0.00125821
  52         0.00000420
  53        -0.00020832
  54         0.00005922
  55         0.00019708
  56        -0.00547259
  57        -0.01619284
  58         0.04786586
  59         0.76011878
  60         0.19624923
  61        -0.09404307
  62        -0.00591710
  63         0.40319063
  64        -0.31457398
  65        -0.01670994
  66        -0.00724661
  67        -0.00028333
  68         0.00033033
  69         0.00444742
  70        -0.00206755
  71        -0.01619289
  72         0.04786605
  73         0.76011908
  74         0.19277771
  75         0.10113152
  76         0.00147966
  77         0.39174240
  78         0.32905879
  79         0.00764393
  80        -0.00724992
  81        -0.00011396
  82         0.00028285
  83         0.00428685
  84         0.00239306
  85         0.01503826
  86         1.14467043
  87         0.01553779
  88        -0.00735496
  89        -0.00046419
  90         0.01503837
  91         1.14466460
  92         0.01526607
  93         0.00791619
  94         0.00011281
  95        -0.01503872
  96        -1.14465260
  97         0.01553757
  98        -0.00735478
  99        -0.00046489
 100        -0.01503870
 101        -1.14465486
 102         0.01526594
 103         0.00791607
 104         0.00011332
Sym=    28a  
Ene=     0.2161
Spin= Alpha
Occup=    0.00000
   1         0.00160909
   2         0.06059051
   3         0.21274144
   4        -0.00160295
   5         0.09012660
   6         0.00341108
   7         0.00575642
   8        -0.32368165
   9        -0.01224728
  10        -0.01689006
  11        -0.00045881
  12         0.00073050
  13         0.00976193
  14         0.00036445
  15        -0.01973427
  16         0.09668278
  17         0.53916674
  18        -0.12677431
  19         0.13875241
  20         0.00674607
  21        -0.35745400
  22         0.10794461
  23         0.00837609
  24        -0.00683748
  25        -0.00094305
  26         0.00085523
  27        -0.00363840
  28        -0.02242050
  29        -0.01972947
  30         0.09662563
  31         0.53897969
  32        -0.12174259
  33        -0.14326638
  34        -0.00391754
  35        -0.35322308
  36        -0.12083799
  37        -0.00027578
  38        -0.00687506
  39         0.00075229
  40         0.00037819
  41        -0.00524185
  42         0.02210550
  43         0.00161700
  44         0.06064719
  45         0.21265752
  46         0.00159987
  47        -0.09007030
  48        -0.00340947
  49        -0.00575963
  50         0.32363694
  51         0.01224799
  52        -0.01688753
  53        -0.00045951
  54         0.00073044
  55         0.00975950
  56         0.00036447
  57        -0.01972982
  58         0.09662966
  59         0.53900255
  60         0.12676088
  61        -0.13874066
  62        -0.00675380
  63         0.35730161
  64        -0.10789858
  65        -0.00837328
  66        -0.00684163
  67        -0.00094243
  68         0.00085572
  69        -0.00363784
  70        -0.02241565
  71        -0.01973440
  72         0.09668115
  73         0.53917124
  74         0.12175870
  75         0.14328221
  76         0.00392337
  77         0.35338097
  78         0.12090153
  79         0.00027263
  80        -0.00687097
  81         0.00075157
  82         0.00037803
  83        -0.00524257
  84         0.02211088
  85         0.05375769
  86        -1.04539671
  87        -0.01425980
  88         0.01038551
  89         0.00056287
  90         0.05378187
  91        -1.04507892
  92        -0.01387861
  93        -0.01089674
  94        -0.00024195
  95         0.05378160
  96        -1.04510579
  97         0.01425751
  98        -0.01038433
  99        -0.00056311
 100         0.05375872
 101        -1.04540141
 102         0.01388130
 103         0.01089833
 104         0.00024216
Sym=    29a  
Ene=     0.2472
Spin= Alpha
Occup=    0.00000
   1         0.00000046
   2         0.00000376
   3        -0.00000355
   4        -0.07300554
   5        -0.00132950
   6         0.00082377
   7         0.12896578
   8         0.00235041
   9        -0.00148965
  10         0.00000881
  11        -0.00045339
  12         0.00012794
  13         0.00042885
  14        -0.01191206
  15         0.00793024
  16        -0.16559778
  17        -0.42992286
  18         0.13079341
  19        -0.02940730
  20        -0.00267614
  21         0.97652956
  22        -0.20840960
  23        -0.01962921
  24        -0.00857231
  25         0.00060931
  26         0.00091161
  27        -0.01458648
  28         0.01632316
  29        -0.00793038
  30         0.16559893
  31         0.42992715
  32        -0.12966433
  33        -0.03415381
  34         0.00027069
  35        -0.96849041
  36        -0.24384893
  37         0.00251988
  38         0.00854711
  39         0.00067155
  40        -0.00127131
  41         0.01337460
  42         0.01731794
  43        -0.00000048
  44        -0.00000228
  45         0.00001015
  46         0.07300553
  47         0.00132767
  48        -0.00082597
  49        -0.12896545
  50        -0.00234447
  51         0.00149374
  52         0.00000865
  53        -0.00045335
  54         0.00012755
  55         0.00042940
  56        -0.01191203
  57         0.00792960
  58        -0.16559247
  59        -0.42991286
  60        -0.13078834
  61         0.02940316
  62         0.00267616
  63        -0.97650223
  64         0.20838784
  65         0.01963328
  66        -0.00857200
  67         0.00060946
  68         0.00091188
  69        -0.01458629
  70         0.01632260
  71        -0.00792966
  72         0.16559322
  73         0.42991246
  74         0.12965823
  75         0.03414908
  76        -0.00027383
  77         0.96846128
  78         0.24382343
  79        -0.00252972
  80         0.00854684
  81         0.00067075
  82        -0.00127164
  83         0.01337448
  84         0.01731740
  85         0.02044174
  86         1.38585753
  87         0.01229966
  88        -0.00888874
  89        -0.00048228
  90        -0.02044022
  91        -1.38587152
  92        -0.01197578
  93        -0.00933115
  94        -0.00020711
  95         0.02043934
  96         1.38580343
  97        -0.01229924
  98         0.00888856
  99         0.00048242
 100        -0.02043756
 101        -1.38580988
 102         0.01197530
 103         0.00933091
 104         0.00020685
Sym=    30a  
Ene=     0.2498
Spin= Alpha
Occup=    0.00000
   1        -0.01962451
   2        -0.14959502
   3         0.20469101
   4        -0.00037921
   5         0.02120060
   6         0.00080311
   7         0.00180573
   8        -0.10139089
   9        -0.00383421
  10        -0.00143040
  11        -0.00017615
  12        -0.00042717
  13         0.01365801
  14         0.00049278
  15        -0.01560175
  16         0.12252330
  17         0.25348544
  18        -0.12753898
  19         0.10973197
  20         0.00566123
  21        -0.59520631
  22         0.59743175
  23         0.02964986
  24         0.00558902
  25        -0.00037186
  26        -0.00043525
  27         0.00548048
  28        -0.01125240
  29         0.01561017
  30        -0.12255133
  31        -0.25370133
  32         0.12355764
  33         0.11436554
  34         0.00282042
  35         0.57361962
  36         0.61878448
  37         0.01636201
  38        -0.00557115
  39        -0.00049979
  40         0.00067895
  41        -0.00465357
  42        -0.01162697
  43         0.01961929
  44         0.14961040
  45        -0.20460436
  46        -0.00037862
  47         0.02129920
  48         0.00080654
  49         0.00180085
  50        -0.10148177
  51        -0.00384008
  52         0.00143751
  53         0.00017627
  54         0.00042696
  55        -0.01366071
  56        -0.00049329
  57         0.01561045
  58        -0.12255755
  59        -0.25371383
  60        -0.12755196
  61         0.10979173
  62         0.00566232
  63        -0.59530120
  64         0.59749602
  65         0.02965892
  66        -0.00558850
  67         0.00037240
  68         0.00043504
  69        -0.00547889
  70         0.01127095
  71        -0.01560213
  72         0.12253048
  73         0.25350601
  74         0.12355910
  75         0.11430869
  76         0.00281291
  77         0.57361451
  78         0.61873970
  79         0.01635163
  80         0.00557235
  81         0.00049845
  82        -0.00067952
  83         0.00465760
  84         0.01161006
  85        -0.06440893
  86        -1.31447217
  87        -0.01031357
  88         0.00431162
  89         0.00028638
  90         0.06436657
  91         1.31476743
  92         0.01015874
  93         0.00469091
  94         0.00005436
  95         0.06436773
  96         1.31482713
  97        -0.01031952
  98         0.00431815
  99         0.00028664
 100        -0.06440917
 101        -1.31453542
 102         0.01015410
 103         0.00468499
 104         0.00005383
Sym=    31a  
Ene=     0.3382
Spin= Alpha
Occup=    0.00000
   1        -0.05923161
   2         0.15090428
   3         1.55620620
   4         0.00437485
   5        -0.24590502
   6        -0.00930476
   7         0.00530682
   8        -0.29826125
   9        -0.01129212
  10        -0.00903060
  11        -0.00023296
  12         0.00043571
  13         0.00404038
  14         0.00015226
  15         0.02965904
  16         0.00093056
  17        -0.84031235
  18        -0.10181827
  19        -0.08816650
  20        -0.00208598
  21        -0.44991363
  22        -0.43308660
  23        -0.01085079
  24        -0.00359316
  25         0.00100204
  26        -0.00021080
  27         0.00234769
  28         0.02940660
  29         0.02965542
  30         0.00094853
  31        -0.84038029
  32        -0.10486705
  33         0.08433533
  34         0.00444761
  35        -0.46465552
  36         0.41595346
  37         0.02129162
  38        -0.00354991
  39        -0.00122689
  40         0.00041636
  41         0.00446722
  42        -0.02916212
  43        -0.05921698
  44         0.15080956
  45         1.55543255
  46        -0.00437400
  47         0.24597895
  48         0.00930928
  49        -0.00529936
  50         0.29805886
  51         0.01128689
  52        -0.00902257
  53        -0.00023290
  54         0.00043511
  55         0.00404501
  56         0.00015237
  57         0.02965553
  58         0.00094733
  59        -0.84039071
  60         0.10180166
  61         0.08810131
  62         0.00208520
  63         0.44956763
  64         0.43261187
  65         0.01083425
  66        -0.00359373
  67         0.00100249
  68        -0.00021078
  69         0.00235721
  70         0.02941359
  71         0.02965904
  72         0.00093085
  73        -0.84031249
  74         0.10488760
  75        -0.08440077
  76        -0.00445014
  77         0.46502290
  78        -0.41642103
  79        -0.02130782
  80        -0.00354931
  81        -0.00122613
  82         0.00041744
  83         0.00445721
  84        -0.02915628
  85        -0.07946419
  86         0.16014885
  87         0.00236676
  88        -0.02089872
  89        -0.00081468
  90        -0.07953106
  91         0.16008947
  92         0.00162282
  93         0.02097208
  94         0.00077020
  95        -0.07953149
  96         0.16008562
  97        -0.00236767
  98         0.02089948
  99         0.00081481
 100        -0.07946529
 101         0.16015487
 102        -0.00162201
 103        -0.02097149
 104        -0.00076987
Sym=    32a  
Ene=     0.4345
Spin= Alpha
Occup=    0.00000
   1         0.00000063
   2        -0.00000093
   3        -0.00001821
   4         0.34440011
   5         0.00627774
   6        -0.00392817
   7         1.02409831
   8         0.01866075
   9        -0.01169466
  10         0.00002089
  11        -0.00106653
  12         0.00030044
  13         0.00100897
  14        -0.02800956
  15        -0.01923359
  16         0.02997910
  17         1.31625905
  18         0.08462763
  19        -0.05068476
  20        -0.00293130
  21         0.69495970
  22         0.87176830
  23         0.02439512
  24        -0.01558349
  25        -0.00119020
  26         0.00119747
  27         0.00236728
  28        -0.02224206
  29        -0.01923324
  30         0.02997740
  31         1.31625267
  32         0.08276781
  33         0.05373605
  34         0.00101598
  35         0.72550176
  36        -0.84588305
  37        -0.04064560
  38        -0.01561691
  39         0.00050632
  40         0.00072075
  41         0.00075963
  42         0.02237809
  43        -0.00000037
  44         0.00000139
  45         0.00001824
  46         0.34440013
  47         0.00627114
  48        -0.00393210
  49         1.02410373
  50         0.01866737
  51        -0.01170101
  52        -0.00002137
  53         0.00106660
  54        -0.00030052
  55        -0.00100901
  56         0.02800996
  57         0.01923334
  58        -0.02997750
  59        -1.31624799
  60         0.08462557
  61        -0.05068487
  62        -0.00293136
  63         0.69496482
  64         0.87178686
  65         0.02438854
  66         0.01558346
  67         0.00119057
  68        -0.00119732
  69        -0.00236730
  70         0.02224047
  71         0.01923337
  72        -0.02997794
  73        -1.31626209
  74         0.08276789
  75         0.05373848
  76         0.00101348
  77         0.72549825
  78        -0.84586637
  79        -0.04062923
  80         0.01561676
  81        -0.00050601
  82        -0.00071974
  83        -0.00075986
  84        -0.02237698
  85         0.16244853
  86        -0.13348602
  87        -0.00965257
  88         0.02182399
  89         0.00093689
  90         0.16245087
  91        -0.13349158
  92        -0.00887028
  93        -0.02216139
  94        -0.00072731
  95        -0.16244335
  96         0.13348392
  97        -0.00965222
  98         0.02182355
  99         0.00093706
 100        -0.16244700
 101         0.13348095
 102        -0.00886992
 103        -0.02216114
 104        -0.00072715
Sym=    33a  
Ene=     0.4618
Spin= Alpha
Occup=    0.00000
   1         0.00000029
   2        -0.00000024
   3        -0.00000740
   4        -0.04253934
   5        -0.00077265
   6         0.00047422
   7         0.45023617
   8         0.00820376
   9        -0.00515698
  10         0.00003724
  11        -0.00189559
  12         0.00053526
  13         0.00179436
  14        -0.04981219
  15         0.03708615
  16        -0.15234818
  17        -2.09651011
  18        -0.15566638
  19         0.15642462
  20         0.00777336
  21        -0.05924948
  22         2.38371414
  23         0.09040013
  24        -0.00165052
  25         0.00053121
  26        -0.00012891
  27         0.00128805
  28         0.01546842
  29        -0.03708627
  30         0.15234884
  31         2.09651980
  32         0.15000300
  33         0.16199493
  34         0.00427249
  35        -0.02556666
  36         2.38432258
  37         0.08997978
  38         0.00162703
  39         0.00064273
  40        -0.00020341
  41        -0.00239769
  42         0.01533411
  43        -0.00000015
  44         0.00000054
  45         0.00000784
  46         0.04254169
  47         0.00077240
  48        -0.00047246
  49        -0.45022792
  50        -0.00820129
  51         0.00516865
  52         0.00003721
  53        -0.00189576
  54         0.00053676
  55         0.00179441
  56        -0.04981210
  57         0.03708636
  58        -0.15234880
  59        -2.09651916
  60         0.15566738
  61        -0.15642505
  62        -0.00777006
  63         0.05926077
  64        -2.38369870
  65        -0.09043221
  66        -0.00165034
  67         0.00052953
  68        -0.00012821
  69         0.00128786
  70         0.01546847
  71        -0.03708626
  72         0.15234887
  73         2.09650962
  74        -0.15000303
  75        -0.16199360
  76        -0.00426685
  77         0.02556317
  78        -2.38432191
  79        -0.09000345
  80         0.00162732
  81         0.00064066
  82        -0.00020341
  83        -0.00239766
  84         0.01533389
  85        -0.00619048
  86        -0.77651809
  87        -0.00149793
  88        -0.00354277
  89        -0.00011410
  90         0.00619532
  91         0.77651267
  92         0.00162262
  93        -0.00348624
  94        -0.00015244
  95        -0.00619080
  96        -0.77651800
  97         0.00149791
  98         0.00354295
  99         0.00011375
 100         0.00619232
 101         0.77651531
 102        -0.00162280
 103         0.00348602
 104         0.00015182
Sym=    34a  
Ene=     0.5557
Spin= Alpha
Occup=    0.00000
   1         0.07783473
   2        -0.00236520
   3        -2.44954518
   4        -0.00383867
   5         0.21565328
   6         0.00816295
   7        -0.01475484
   8         0.82861995
   9         0.03136062
  10         0.04546750
  11         0.00119072
  12        -0.00213113
  13        -0.02192808
  14        -0.00082336
  15        -0.08543181
  16        -0.00094246
  17         2.64059136
  18        -0.04022134
  19        -0.24951405
  20        -0.00891131
  21         1.70489130
  22        -0.90470553
  23        -0.05469372
  24         0.01945428
  25         0.00135869
  26        -0.00259258
  27         0.02445770
  28         0.03319406
  29         0.08542635
  30         0.00091953
  31        -2.64063008
  32         0.04905987
  33        -0.24791923
  34        -0.00993161
  35        -1.67165504
  36        -0.96615469
  37        -0.01602297
  38        -0.01948626
  39         0.00109237
  40         0.00189860
  41        -0.02678446
  42         0.03134368
  43        -0.07784888
  44         0.00232153
  45         2.44968242
  46        -0.00383574
  47         0.21578527
  48         0.00816631
  49        -0.01473324
  50         0.82851720
  51         0.03135987
  52        -0.04546057
  53        -0.00119052
  54         0.00213034
  55         0.02193480
  56         0.00082387
  57         0.08542625
  58         0.00091646
  59        -2.64062180
  60        -0.04020678
  61        -0.24954271
  62        -0.00889673
  63         1.70494906
  64        -0.90461121
  65        -0.05471850
  66        -0.01943890
  67        -0.00135781
  68         0.00259310
  69        -0.02446145
  70        -0.03316008
  71        -0.08543224
  72        -0.00094190
  73         2.64060665
  74         0.04907148
  75        -0.24789266
  76        -0.00991376
  77        -1.67164093
  78        -0.96619644
  79        -0.01606591
  80         0.01950233
  81        -0.00109401
  82        -0.00190048
  83         0.02678393
  84        -0.03137843
  85        -0.24970341
  86         0.86876720
  87         0.00852543
  88        -0.02869336
  89        -0.00118354
  90         0.24952973
  91        -0.86860078
  92        -0.00748513
  93        -0.02897155
  94        -0.00099619
  95         0.24953237
  96        -0.86860265
  97         0.00851081
  98        -0.02868032
  99        -0.00118324
 100        -0.24970760
 101         0.86877209
 102        -0.00749956
 103        -0.02898569
 104        -0.00099797
Sym=    35a  
Ene=     0.6050
Spin= Alpha
Occup=    0.00000
   1        -0.00000009
   2        -0.00000085
   3         0.00000812
   4        -0.38358743
   5        -0.00698477
   6         0.00435968
   7        -1.58531624
   8        -0.02890014
   9         0.01807385
  10        -0.00002112
  11         0.00102543
  12        -0.00028836
  13        -0.00097110
  14         0.02696558
  15         0.03592268
  16        -0.15818307
  17        -1.04133612
  18        -0.04220315
  19         0.15101908
  20         0.00621170
  21        -1.99312739
  22        -1.41677782
  23        -0.02911200
  24        -0.03943252
  25        -0.00168964
  26         0.00450072
  27        -0.03970809
  28        -0.03569500
  29        -0.03592229
  30         0.15818369
  31         1.04133665
  32         0.03680273
  33         0.15246355
  34         0.00530396
  35         2.04222821
  36        -1.34324621
  37        -0.07538302
  38         0.03948235
  39        -0.00091282
  40        -0.00376599
  41         0.04217544
  42        -0.03280333
  43        -0.00000011
  44         0.00000144
  45         0.00000049
  46         0.38358602
  47         0.00698681
  48        -0.00436660
  49         1.58531774
  50         0.02887881
  51        -0.01808863
  52        -0.00001978
  53         0.00102585
  54        -0.00028799
  55        -0.00097179
  56         0.02696623
  57         0.03592094
  58        -0.15818491
  59        -1.04126646
  60         0.04220604
  61        -0.15101196
  62        -0.00620831
  63         1.99311352
  64         1.41683070
  65         0.02912071
  66        -0.03943304
  67        -0.00169135
  68         0.00450211
  69        -0.03970621
  70        -0.03569587
  71        -0.03591931
  72         0.15819187
  73         1.04125179
  74        -0.03681273
  75        -0.15245221
  76        -0.00530026
  77        -2.04220480
  78         1.34329229
  79         0.07536739
  80         0.03948284
  81        -0.00091302
  82        -0.00376757
  83         0.04217413
  84        -0.03280212
  85         0.32831138
  86        -0.50880149
  87        -0.01573162
  88         0.03525129
  89         0.00151923
  90        -0.32830565
  91         0.50879606
  92         0.01446694
  93         0.03580126
  94         0.00116793
  95         0.32831770
  96        -0.50879490
  97         0.01573273
  98        -0.03525080
  99        -0.00152021
 100        -0.32830163
 101         0.50877946
 102        -0.01446731
 103        -0.03580023
 104        -0.00116963
Sym=    36a  
Ene=     0.6409
Spin= Alpha
Occup=    0.00000
   1        -0.00000050
   2         0.00000121
   3         0.00000326
   4        -0.09535801
   5        -0.00174478
   6         0.00109541
   7         0.22421862
   8         0.00410737
   9        -0.00255597
  10         0.00006904
  11        -0.00342804
  12         0.00096650
  13         0.00324401
  14        -0.09006494
  15        -0.07623941
  16        -0.34139120
  17         0.66979484
  18        -0.40938160
  19        -0.25138869
  20        -0.00447576
  21         0.57155854
  22         0.57481123
  23         0.01467340
  24         0.00526032
  25         0.00547653
  26        -0.00023239
  27        -0.04430413
  28         0.12846820
  29        -0.07623527
  30        -0.34137918
  31         0.66967317
  32        -0.41804209
  33         0.23629151
  34         0.01397362
  35         0.59159902
  36        -0.55367673
  37        -0.02801312
  38         0.00545642
  39        -0.00441174
  40         0.00255444
  41        -0.03495042
  42        -0.13133090
  43         0.00000065
  44        -0.00000396
  45        -0.00000973
  46        -0.09536140
  47        -0.00174474
  48         0.00109627
  49         0.22420521
  50         0.00410311
  51        -0.00257103
  52        -0.00006854
  53         0.00342881
  54        -0.00096855
  55        -0.00324329
  56         0.09006481
  57         0.07623581
  58         0.34138070
  59        -0.66977428
  60        -0.40938028
  61        -0.25139674
  62        -0.00448603
  63         0.57153968
  64         0.57480696
  65         0.01469880
  66        -0.00525608
  67        -0.00547584
  68         0.00023268
  69         0.04430374
  70        -0.12846530
  71         0.07623214
  72         0.34136465
  73        -0.66966441
  74        -0.41804130
  75         0.23630373
  76         0.01398909
  77         0.59161401
  78        -0.55370070
  79        -0.02804328
  80        -0.00545341
  81         0.00440819
  82        -0.00255516
  83         0.03494922
  84         0.13132858
  85        -0.57211211
  86         0.58723233
  87         0.05603482
  88        -0.02800947
  89        -0.00173011
  90        -0.57211766
  91         0.58722383
  92         0.05500437
  93         0.03003125
  94         0.00046656
  95         0.57209117
  96        -0.58721206
  97         0.05603265
  98        -0.02800764
  99        -0.00173001
 100         0.57210405
 101        -0.58721285
 102         0.05500269
 103         0.03003014
 104         0.00046562
Sym=    37a  
Ene=     0.6512
Spin= Alpha
Occup=    0.00000
   1         0.00000185
   2         0.00001037
   3        -0.00000891
   4         0.00117805
   5        -0.00361555
   6         0.09620620
   7         0.00201240
   8        -0.00631618
   9         0.16639875
  10        -0.00189641
  11         0.00049992
  12        -0.02880086
  13        -0.00108080
  14        -0.00036451
  15         0.00002476
  16         0.00010956
  17        -0.00022086
  18         0.00853707
  19        -0.02645557
  20         0.70271395
  21        -0.00968210
  22         0.03010553
  23        -0.79728711
  24        -0.00373441
  25         0.00999983
  26        -0.05388547
  27        -0.00190719
  28        -0.00104032
  29         0.00001546
  30         0.00006208
  31         0.00004831
  32         0.00849694
  33        -0.02639449
  34         0.70271453
  35        -0.00963572
  36         0.03004726
  37        -0.79727224
  38         0.00334480
  39         0.00812345
  40         0.05422533
  41         0.00214933
  42         0.00036438
  43        -0.00000079
  44         0.00002721
  45         0.00001987
  46         0.00117435
  47        -0.00357360
  48         0.09620500
  49         0.00201660
  50        -0.00630638
  51         0.16638890
  52         0.00189314
  53        -0.00049978
  54         0.02880120
  55         0.00107243
  56         0.00036654
  57         0.00001733
  58         0.00005496
  59         0.00003821
  60         0.00851894
  61        -0.02632690
  62         0.70271685
  63        -0.00964971
  64         0.02995195
  65        -0.79727542
  66         0.00370108
  67        -0.01000081
  68         0.05388759
  69         0.00191789
  70         0.00102528
  71         0.00002500
  72         0.00009216
  73        -0.00018484
  74         0.00850549
  75        -0.02651519
  76         0.70271229
  77        -0.00965173
  78         0.03019755
  79        -0.79728454
  80        -0.00338742
  81        -0.00812419
  82        -0.05422273
  83        -0.00214571
  84        -0.00034699
  85         0.00005183
  86        -0.00005212
  87         0.00021194
  88        -0.00067068
  89         0.01800829
  90         0.00009495
  91        -0.00007874
  92         0.00020476
  93        -0.00068554
  94         0.01800825
  95         0.00008769
  96        -0.00006333
  97         0.00022775
  98        -0.00068395
  99         0.01800804
 100         0.00005003
 101        -0.00005576
 102         0.00022266
 103        -0.00067014
 104         0.01800818
Sym=    38a  
Ene=     0.6518
Spin= Alpha
Occup=    0.00000
   1         0.00278514
   2         0.12941825
   3         0.04992239
   4         0.00268421
   5        -0.15083439
   6        -0.00571794
   7         0.00065169
   8        -0.03604429
   9        -0.00139870
  10        -0.01280279
  11         0.00004768
  12         0.00196510
  13        -0.02951792
  14        -0.00105493
  15         0.14105641
  16         0.53794197
  17        -0.54286637
  18         0.02767106
  19        -0.44685898
  20        -0.01724055
  21        -0.04281718
  22         0.54048678
  23         0.02098014
  24        -0.13311346
  25        -0.00526497
  26         0.00832777
  27         0.02785701
  28        -0.05675804
  29         0.14113864
  30         0.53825700
  31        -0.54506591
  32         0.01208338
  33         0.44725855
  34         0.01662020
  35        -0.02401217
  36        -0.54298380
  37        -0.02008239
  38        -0.13315143
  39        -0.00086796
  40         0.00708252
  41         0.02359568
  42         0.05880307
  43         0.00279783
  44         0.12928641
  45         0.04989292
  46        -0.00267973
  47         0.15051112
  48         0.00567683
  49        -0.00066169
  50         0.03686170
  51         0.00138245
  52        -0.01286025
  53         0.00004494
  54         0.00195963
  55        -0.02948670
  56        -0.00105162
  57         0.14114081
  58         0.53826991
  59        -0.54506975
  60        -0.02799555
  61         0.44652969
  62         0.01701493
  63         0.04330359
  64        -0.54176017
  65        -0.02076693
  66        -0.13306583
  67        -0.00525936
  68         0.00831723
  69         0.02775982
  70        -0.05675712
  71         0.14105979
  72         0.53795215
  73        -0.54290270
  74        -0.01177410
  75        -0.44757051
  76        -0.01681834
  77         0.02360840
  78         0.54167500
  79         0.02022683
  80        -0.13320053
  81        -0.00086939
  82         0.00709893
  83         0.02369470
  84         0.05881887
  85         0.50199118
  86        -0.43647374
  87        -0.05859239
  88         0.04835624
  89         0.00252375
  90         0.50179884
  91        -0.43649743
  92        -0.05678629
  93        -0.05047746
  94        -0.00121458
  95         0.50181320
  96        -0.43650882
  97         0.05854643
  98        -0.04837650
  99        -0.00252962
 100         0.50201401
 101        -0.43650005
 102         0.05683653
 103         0.05046097
 104         0.00120792
Sym=    39a  
Ene=     0.6741
Spin= Alpha
Occup=    0.00000
   1        -0.02541137
   2         0.12473214
   3         0.27568671
   4         0.00762832
   5        -0.42929739
   6        -0.01624639
   7        -0.01425921
   8         0.80031901
   9         0.03029719
  10         0.05740745
  11         0.00158745
  12        -0.00239004
  13        -0.03565751
  14        -0.00132586
  15        -0.07575855
  16        -0.36461299
  17         1.82687749
  18        -0.32111667
  19        -0.33404266
  20        -0.00864716
  21         0.28807987
  22        -1.02857773
  23        -0.04219965
  24        -0.06222932
  25        -0.00337971
  26        -0.00033430
  27         0.12184928
  28        -0.01597726
  29         0.07558308
  30         0.36387723
  31        -1.82603633
  32         0.33271107
  33        -0.32253303
  34        -0.01614898
  35        -0.25111179
  36        -1.03794205
  37        -0.03602630
  38         0.06237309
  39         0.00183072
  40         0.00076514
  41        -0.12037294
  42        -0.02482925
  43         0.02544046
  44        -0.12474098
  45        -0.27619802
  46         0.00763723
  47        -0.42953297
  48        -0.01625884
  49        -0.01422716
  50         0.80024963
  51         0.03029308
  52        -0.05737767
  53        -0.00158651
  54         0.00238751
  55         0.03566493
  56         0.00132717
  57         0.07557334
  58         0.36383477
  59        -1.82600364
  60        -0.32100808
  61        -0.33446937
  62        -0.00864129
  63         0.28787268
  64        -1.02809569
  65        -0.04221626
  66         0.06234930
  67         0.00338294
  68         0.00033235
  69        -0.12184689
  70         0.01601693
  71        -0.07577086
  72        -0.36465104
  73         1.82697633
  74         0.33281002
  75        -0.32211672
  76        -0.01609293
  77        -0.25139149
  78        -1.03839314
  79        -0.03610396
  80        -0.06225192
  81        -0.00183168
  82        -0.00077845
  83         0.12037975
  84         0.02478752
  85         0.28459517
  86        -0.19683441
  87        -0.06172249
  88        -0.01338554
  89         0.00024490
  90        -0.28481969
  91         0.19701623
  92         0.06219162
  93        -0.01109176
  94        -0.00116814
  95        -0.28486513
  96         0.19705564
  97        -0.06176221
  98        -0.01334824
  99         0.00024591
 100         0.28453256
 101        -0.19676439
 102         0.06215233
 103        -0.01113284
 104        -0.00117029
Sym=    40a  
Ene=     0.7013
Spin= Alpha
Occup=    0.00000
   1         0.00000070
   2        -0.00000327
   3        -0.00000375
   4        -0.30401418
   5        -0.00552692
   6         0.00346786
   7        -0.30725414
   8        -0.00561855
   9         0.00346851
  10         0.00001479
  11        -0.00083951
  12         0.00023823
  13         0.00079526
  14        -0.02203781
  15         0.14953734
  16         0.49420993
  17        -0.93088737
  18        -0.03151914
  19        -0.49959544
  20        -0.01839923
  21        -0.32132256
  22         0.42700894
  23         0.01997944
  24        -0.12627861
  25        -0.00350688
  26         0.00861253
  27        -0.00248444
  28        -0.02357284
  29         0.14953334
  30         0.49418619
  31        -0.93081923
  32        -0.04928590
  33         0.49813866
  34         0.01939843
  35        -0.30591520
  36        -0.43841404
  37        -0.01287264
  38        -0.12631703
  39        -0.00171339
  40         0.00812121
  41        -0.00417181
  42         0.02352397
  43        -0.00000032
  44         0.00000481
  45         0.00000025
  46        -0.30401436
  47        -0.00552348
  48         0.00347825
  49        -0.30725328
  50        -0.00562086
  51         0.00353708
  52        -0.00001459
  53         0.00083890
  54        -0.00023217
  55        -0.00079483
  56         0.02203798
  57        -0.14953500
  58        -0.49419825
  59         0.93088162
  60        -0.03152013
  61        -0.49959275
  62        -0.01835068
  63        -0.32132467
  64         0.42700851
  65         0.01983436
  66         0.12627790
  67         0.00350401
  68        -0.00861902
  69         0.00248325
  70         0.02357383
  71        -0.14953070
  72        -0.49417440
  73         0.93080445
  74        -0.04928800
  75         0.49813768
  76         0.01932478
  77        -0.30591034
  78        -0.43840999
  79        -0.01270068
  80         0.12631625
  81         0.00171950
  82        -0.00812260
  83         0.00417086
  84        -0.02352515
  85         0.45170208
  86        -0.47125473
  87        -0.05488778
  88         0.02947393
  89         0.00177377
  90         0.45172228
  91        -0.47128007
  92        -0.05380814
  93        -0.03145440
  94        -0.00053045
  95        -0.45170630
  96         0.47126060
  97        -0.05488826
  98         0.02947389
  99         0.00177368
 100        -0.45172593
 101         0.47128367
 102        -0.05380859
 103        -0.03145426
 104        -0.00053009
Sym=    41a  
Ene=     0.7046
Spin= Alpha
Occup=    0.00000
   1         0.00000062
   2         0.00000015
   3         0.00001371
   4        -0.00001286
   5         0.00000935
   6         0.00000040
   7        -0.00002013
   8        -0.00003710
   9        -0.00000138
  10        -0.00075953
  11         0.03813745
  12         0.00071169
  13         0.00048999
  14        -0.00142683
  15         0.00000878
  16         0.00002713
  17        -0.00004585
  18        -0.00852395
  19         0.02658636
  20        -0.70678321
  21         0.01007347
  22        -0.03155192
  23         0.83869225
  24         0.00589566
  25        -0.05677590
  26         0.07222412
  27         0.00202361
  28         0.00300819
  29         0.00000187
  30         0.00001630
  31        -0.00000227
  32        -0.00855522
  33         0.02664138
  34        -0.70677968
  35         0.01017343
  36        -0.03163666
  37         0.83868418
  38        -0.00370820
  39        -0.05423240
  40        -0.07429415
  41        -0.00344957
  42         0.00114499
  43        -0.00000283
  44        -0.00000779
  45         0.00002986
  46         0.00001017
  47         0.00000254
  48         0.00000006
  49         0.00001511
  50         0.00001764
  51         0.00000082
  52        -0.00075665
  53         0.03813764
  54         0.00071165
  55         0.00048615
  56        -0.00142761
  57         0.00000084
  58         0.00000191
  59         0.00000889
  60         0.00854733
  61        -0.02655838
  62         0.70678330
  63        -0.01010256
  64         0.03155836
  65        -0.83868946
  66         0.00590314
  67        -0.05677575
  68         0.07222318
  69         0.00203624
  70         0.00301091
  71         0.00000604
  72         0.00003277
  73        -0.00004151
  74         0.00854345
  75        -0.02659074
  76         0.70678207
  77        -0.01018094
  78         0.03161194
  79        -0.83868700
  80        -0.00371180
  81        -0.05423248
  82        -0.07429331
  83        -0.00346235
  84         0.00114221
  85         0.00001864
  86        -0.00002130
  87         0.00006023
  88        -0.00018502
  89         0.00504765
  90        -0.00001499
  91         0.00001219
  92         0.00006117
  93        -0.00018948
  94         0.00504741
  95         0.00000242
  96         0.00000078
  97        -0.00005996
  98         0.00018942
  99        -0.00504744
 100        -0.00001163
 101         0.00001595
 102        -0.00006396
 103         0.00019184
 104        -0.00504735
Sym=    42a  
Ene=     0.7223
Spin= Alpha
Occup=    0.00000
   1         0.00029166
   2         0.08350547
   3        -0.41950541
   4         0.00282191
   5        -0.15871149
   6        -0.00600466
   7        -0.00818642
   8         0.46021161
   9         0.01745340
  10         0.06808418
  11         0.00212032
  12        -0.00199946
  13        -0.06427340
  14        -0.00236674
  15        -0.17679959
  16        -0.94597433
  17         1.08036742
  18        -0.29989950
  19        -0.01638692
  20         0.00304382
  21         0.39533030
  22        -0.12235922
  23        -0.00945985
  24        -0.04536922
  25        -0.00285240
  26        -0.00252589
  27         0.14680167
  28        -0.00337436
  29        -0.17681682
  30        -0.94609634
  31         1.08059951
  32        -0.30036639
  33         0.00554608
  34         0.00378103
  35         0.39072009
  36         0.13671710
  37         0.00052806
  38        -0.04540448
  39        -0.00219465
  40        -0.00271216
  41         0.14622501
  42         0.01401205
  43         0.00028145
  44         0.08353183
  45        -0.41939838
  46        -0.00282772
  47         0.15886721
  48         0.00601213
  49         0.00818577
  50        -0.46040154
  51        -0.01746334
  52         0.06809961
  53         0.00212141
  54        -0.00200005
  55        -0.06428737
  56        -0.00236693
  57        -0.17681841
  58        -0.94610055
  59         1.08061449
  60         0.29997285
  61         0.01648025
  62        -0.00305791
  63        -0.39533610
  64         0.12239774
  65         0.00950103
  66        -0.04539022
  67        -0.00285353
  68        -0.00252580
  69         0.14685207
  70        -0.00338674
  71        -0.17680069
  72        -0.94597874
  73         1.08037096
  74         0.30028672
  75        -0.00544639
  76        -0.00375686
  77        -0.39072061
  78        -0.13668459
  79        -0.00056993
  80        -0.04538107
  81        -0.00219808
  82        -0.00271301
  83         0.14617587
  84         0.01399639
  85         0.43331962
  86        -0.49009399
  87        -0.05877408
  88         0.00178208
  89         0.00077832
  90         0.43344597
  91        -0.49028390
  92        -0.05869861
  93        -0.00392490
  94         0.00056062
  95         0.43344195
  96        -0.49027824
  97         0.05879971
  98        -0.00178361
  99        -0.00077811
 100         0.43331856
 101        -0.49009405
 102         0.05867238
 103         0.00392215
 104        -0.00056230
Sym=    43a  
Ene=     0.7287
Spin= Alpha
Occup=    0.00000
   1        -0.00000114
   2        -0.00000035
   3        -0.00003329
   4        -0.00152112
   5         0.00479391
   6        -0.12778027
   7        -0.00350379
   8         0.01113375
   9        -0.29465048
  10         0.00343136
  11        -0.00090542
  12         0.05218215
  13         0.00194896
  14         0.00066875
  15        -0.00002783
  16        -0.00010529
  17         0.00017522
  18        -0.00814012
  19         0.02525325
  20        -0.67119743
  21         0.01591502
  22        -0.04921865
  23         1.30866979
  24        -0.00191709
  25        -0.03314040
  26        -0.04020129
  27        -0.00189457
  28         0.00076535
  29        -0.00002462
  30        -0.00012695
  31         0.00013992
  32         0.00809407
  33        -0.02532166
  34         0.67120507
  35        -0.01579877
  36         0.04934064
  37        -1.30867602
  38        -0.00326878
  39         0.03451481
  40        -0.03893730
  41        -0.00104187
  42        -0.00177026
  43        -0.00000021
  44         0.00000082
  45        -0.00004464
  46         0.00155203
  47        -0.00479609
  48         0.12777982
  49         0.00354846
  50        -0.01114267
  51         0.29464933
  52         0.00343101
  53        -0.00090543
  54         0.05218375
  55         0.00195086
  56         0.00066964
  57        -0.00000588
  58        -0.00002903
  59         0.00007047
  60         0.00812675
  61        -0.02521712
  62         0.67120757
  63        -0.01587100
  64         0.04922842
  65        -1.30867773
  66        -0.00193341
  67        -0.03314174
  68        -0.04019952
  69        -0.00189956
  70         0.00075866
  71        -0.00000486
  72        -0.00006327
  73        -0.00002582
  74        -0.00809829
  75         0.02525363
  76        -0.67119846
  77         0.01586115
  78        -0.04926345
  79         1.30866896
  80        -0.00328172
  81         0.03451402
  82        -0.03893711
  83        -0.00103888
  84        -0.00176264
  85        -0.00002418
  86         0.00001852
  87        -0.00004302
  88         0.00012803
  89        -0.00358425
  90         0.00003062
  91        -0.00003262
  92         0.00004112
  93        -0.00013791
  94         0.00358423
  95         0.00004020
  96        -0.00002763
  97         0.00004903
  98        -0.00013248
  99         0.00358435
 100         0.00009423
 101        -0.00010072
 102        -0.00003348
 103         0.00014012
 104        -0.00358391
Sym=    44a  
Ene=     0.7653
Spin= Alpha
Occup=    0.00000
   1        -0.00000009
   2         0.00001294
   3         0.00003189
   4         0.00000535
   5        -0.00002013
   6        -0.00000088
   7         0.00000347
   8         0.00003348
   9         0.00000121
  10         0.00063712
  11        -0.03218625
  12        -0.00060049
  13        -0.00040956
  14         0.00120451
  15         0.00000038
  16        -0.00001191
  17         0.00008681
  18         0.00801834
  19        -0.02492738
  20         0.66356341
  21        -0.01596285
  22         0.04961989
  23        -1.32209557
  24         0.00195936
  25         0.03137655
  26         0.04025193
  27         0.00188860
  28        -0.00069280
  29        -0.00000720
  30        -0.00002306
  31        -0.00004246
  32        -0.00804343
  33         0.02500678
  34        -0.66356110
  35         0.01601180
  36        -0.04986104
  37         1.32208710
  38         0.00324329
  39        -0.03275325
  40         0.03905401
  41         0.00108527
  42         0.00170703
  43         0.00000060
  44        -0.00000110
  45        -0.00003967
  46         0.00000654
  47        -0.00001172
  48        -0.00000063
  49        -0.00000354
  50         0.00003443
  51         0.00000176
  52        -0.00063532
  53         0.03218644
  54         0.00060058
  55         0.00040567
  56        -0.00120600
  57        -0.00000359
  58        -0.00001458
  59        -0.00003344
  60         0.00803765
  61        -0.02491368
  62         0.66356516
  63        -0.01600982
  64         0.04961802
  65        -1.32209732
  66        -0.00196841
  67        -0.03137707
  68        -0.04025139
  69        -0.00188607
  70         0.00069088
  71         0.00000538
  72         0.00000390
  73         0.00003826
  74        -0.00803788
  75         0.02497743
  76        -0.66356142
  77         0.01603670
  78        -0.04981730
  79         1.32208772
  80        -0.00324816
  81         0.03275297
  82        -0.03905398
  83        -0.00107926
  84        -0.00170511
  85         0.00003549
  86         0.00000292
  87        -0.00013045
  88         0.00040947
  89        -0.01077403
  90        -0.00002275
  91         0.00000055
  92         0.00013037
  93        -0.00040148
  94         0.01077430
  95        -0.00000332
  96        -0.00001827
  97        -0.00012709
  98         0.00040827
  99        -0.01077410
 100         0.00004064
 101        -0.00002818
 102         0.00013400
 103        -0.00040119
 104         0.01077431
Sym=    45a  
Ene=     0.8492
Spin= Alpha
Occup=    0.00000
   1         0.02132031
   2         0.02135213
   3        -0.51665418
   4        -0.00339505
   5         0.19007991
   6         0.00720139
   7         0.01273722
   8        -0.71835924
   9        -0.02718615
  10         0.00075550
  11         0.00072679
  12         0.00247567
  13        -0.06628209
  14        -0.00239416
  15        -0.03010700
  16        -0.22173626
  17        -1.84409003
  18         0.27950961
  19        -0.45301138
  20        -0.02040413
  21        -0.64179285
  22         2.71796935
  23         0.10994302
  24         0.02682822
  25        -0.00435645
  26        -0.00727965
  27         0.17120505
  28        -0.07588354
  29         0.03010517
  30         0.22171046
  31         1.84407221
  32        -0.26314096
  33        -0.46289714
  34        -0.01427361
  35         0.54453767
  36         2.73969487
  37         0.09656055
  38        -0.02673713
  39        -0.00187826
  40         0.00903826
  41        -0.16527426
  42        -0.08792649
  43        -0.02136473
  44        -0.02152921
  45         0.51709157
  46        -0.00337064
  47         0.19017534
  48         0.00720574
  49         0.01281075
  50        -0.71851669
  51        -0.02720110
  52        -0.00076716
  53        -0.00072629
  54        -0.00247572
  55         0.06628189
  56         0.00238226
  57         0.03009926
  58         0.22170134
  59         1.84422919
  60         0.27955386
  61        -0.45303585
  62        -0.02040323
  63        -0.64186822
  64         2.71834602
  65         0.10998300
  66        -0.02685670
  67         0.00435230
  68         0.00728436
  69        -0.17118695
  70         0.07585752
  71        -0.03010557
  72        -0.22174407
  73        -1.84420433
  74        -0.26334244
  75        -0.46291564
  76        -0.01424654
  77         0.54493158
  78         2.73984894
  79         0.09653121
  80         0.02670511
  81         0.00187239
  82        -0.00904213
  83         0.16531649
  84         0.08797638
  85         0.25901009
  86        -1.23887355
  87        -0.09513869
  88         0.06126669
  89         0.00345171
  90        -0.25894151
  91         1.23872214
  92         0.09287100
  93         0.06468514
  94         0.00131292
  95        -0.25900549
  96         1.23895144
  97        -0.09512944
  98         0.06127593
  99         0.00345156
 100         0.25907692
 101        -1.23910743
 102         0.09291608
 103         0.06470941
 104         0.00131035
Sym=    46a  
Ene=     0.8529
Spin= Alpha
Occup=    0.00000
   1        -0.00000229
   2        -0.00000378
   3         0.00004949
   4        -0.13143820
   5        -0.00241237
   6         0.00150701
   7        -0.44311057
   8        -0.00800783
   9         0.00504334
  10         0.00004653
  11        -0.00237414
  12         0.00067095
  13         0.00225257
  14        -0.06236360
  15        -0.01606307
  16         0.00524396
  17         0.73867545
  18        -0.69104609
  19         0.14682566
  20         0.01388453
  21         1.33452993
  22        -1.54572510
  23        -0.07426088
  24         0.00470957
  25         0.00314818
  26         0.00237649
  27        -0.08812230
  28         0.05288446
  29         0.01606299
  30        -0.00524344
  31        -0.73867711
  32         0.68538125
  33         0.17190229
  34        -0.00182877
  35        -1.27869489
  36        -1.59333186
  37        -0.04449892
  38        -0.00479283
  39         0.00111335
  40        -0.00357243
  41         0.08408849
  42         0.05909663
  43         0.00000113
  44        -0.00000230
  45        -0.00003312
  46         0.13143910
  47         0.00237439
  48        -0.00150965
  49         0.44310978
  50         0.00813991
  51        -0.00503311
  52         0.00004609
  53        -0.00237475
  54         0.00067067
  55         0.00224105
  56        -0.06236420
  57        -0.01606811
  58         0.00520749
  59         0.73834593
  60         0.69099343
  61        -0.14674547
  62        -0.01388063
  63        -1.33440743
  64         1.54524701
  65         0.07425767
  66         0.00471484
  67         0.00315025
  68         0.00237541
  69        -0.08809286
  70         0.05287103
  71         0.01606800
  72        -0.00520724
  73        -0.73835112
  74        -0.68533079
  75        -0.17182080
  76         0.00184451
  77         1.27859070
  78         1.59284888
  79         0.04446075
  80        -0.00479825
  81         0.00111127
  82        -0.00357117
  83         0.08406001
  84         0.05908089
  85        -0.35068800
  86         1.32308127
  87         0.10709602
  88        -0.08621284
  89        -0.00453452
  90         0.35069029
  91        -1.32308548
  92        -0.10396084
  93        -0.09005855
  94        -0.00213284
  95        -0.35064461
  96         1.32286368
  97        -0.10707932
  98         0.08620178
  99         0.00453600
 100         0.35064676
 101        -1.32286669
 102         0.10394455
 103         0.09004692
 104         0.00213199
Sym=    47a  
Ene=     0.9127
Spin= Alpha
Occup=    0.00000
   1        -0.00000022
   2        -0.00000106
   3         0.00000211
   4        -0.00542260
   5        -0.00009856
   6         0.00003844
   7        -0.10141098
   8        -0.00184695
   9         0.00119033
  10        -0.00000740
  11         0.00035683
  12        -0.00010440
  13        -0.00033702
  14         0.00935591
  15         0.23432256
  16         1.12244481
  17        -1.98447846
  18        -0.41061888
  19         0.27262986
  20         0.01519917
  21         1.17788859
  22        -0.84383019
  23        -0.04597919
  24        -0.01343401
  25         0.00339531
  26         0.00137241
  27        -0.04058712
  28         0.08436236
  29         0.23432251
  30         1.12244491
  31        -1.98448918
  32        -0.40065475
  33        -0.28740583
  34        -0.00597371
  35         1.14710377
  36         0.88618049
  37         0.01948559
  38        -0.01330393
  39        -0.00312864
  40         0.00322775
  41        -0.03441093
  42        -0.08704464
  43        -0.00000032
  44        -0.00000187
  45         0.00000383
  46        -0.00542362
  47        -0.00009857
  48         0.00003604
  49        -0.10141373
  50        -0.00184779
  51         0.00116792
  52         0.00000701
  53        -0.00035654
  54         0.00010468
  55         0.00033719
  56        -0.00935575
  57        -0.23432274
  58        -1.12244547
  59         1.98448621
  60        -0.41062175
  61         0.27262456
  62         0.01521611
  63         1.17788728
  64        -0.84382272
  65        -0.04596688
  66         0.01343317
  67        -0.00339371
  68        -0.00137420
  69         0.04058641
  70        -0.08436359
  71        -0.23432281
  72        -1.12244589
  73         1.98448422
  74        -0.40065688
  75        -0.28740849
  76        -0.00597477
  77         1.14711188
  78         0.88618577
  79         0.01944218
  80         0.01330411
  81         0.00312489
  82        -0.00323139
  83         0.03441177
  84         0.08704552
  85         0.27148025
  86         0.97078757
  87         0.12375282
  88        -0.04848918
  89        -0.00332686
  90         0.27147921
  91         0.97078229
  92         0.12194752
  93         0.05296640
  94         0.00051523
  95        -0.27147847
  96        -0.97078826
  97         0.12375306
  98        -0.04848978
  99        -0.00332317
 100        -0.27147976
 101        -0.97078670
 102         0.12194815
 103         0.05296658
 104         0.00050902
Sym=    48a  
Ene=     0.9329
Spin= Alpha
Occup=    0.00000
   1         0.10665493
   2         0.60339954
   3        -1.06294679
   4        -0.00192772
   5         0.11050853
   6         0.00417409
   7         0.00870859
   8        -0.48677496
   9        -0.01841481
  10         0.07713167
  11         0.00186681
  12        -0.00415642
  13        -0.02302819
  14        -0.00088175
  15         0.08461710
  16         0.32773652
  17        -0.68287987
  18        -0.61503819
  19        -0.14983717
  20         0.00179358
  21         0.86331569
  22         0.31363873
  23         0.00138257
  24         0.05153057
  25         0.00900139
  26        -0.00298566
  27        -0.07055418
  28         0.18792315
  29         0.08457853
  30         0.32750438
  31        -0.68295817
  32        -0.62034794
  33         0.12737516
  34         0.01231129
  35         0.87446488
  36        -0.28215306
  37        -0.02121279
  38         0.05181896
  39        -0.00547864
  40         0.00109561
  41        -0.05684776
  42        -0.19265435
  43         0.10671022
  44         0.60369702
  45        -1.06378444
  46         0.00192548
  47        -0.11041947
  48        -0.00417654
  49        -0.00870129
  50         0.48676297
  51         0.01842364
  52         0.07717910
  53         0.00186872
  54        -0.00416039
  55        -0.02302349
  56        -0.00088164
  57         0.08458401
  58         0.32752829
  59        -0.68274494
  60         0.61538655
  61         0.14972596
  62        -0.00180988
  63        -0.86410471
  64        -0.31358241
  65        -0.00136239
  66         0.05151887
  67         0.00900459
  68        -0.00298408
  69        -0.07059172
  70         0.18797528
  71         0.08461117
  72         0.32770881
  73        -0.68309292
  74         0.62000164
  75        -0.12750623
  76        -0.01230538
  77        -0.87365951
  78         0.28224831
  79         0.02119990
  80         0.05182994
  81        -0.00547454
  82         0.00109527
  83        -0.05681425
  84        -0.19259885
  85        -0.05529246
  86         0.64199257
  87         0.11272106
  88        -0.04828975
  89        -0.00317540
  90        -0.05535974
  91         0.64221504
  92         0.11095876
  93         0.05241006
  94         0.00063524
  95        -0.05531280
  96         0.64232707
  97        -0.11276375
  98         0.04832195
  99         0.00317579
 100        -0.05534528
 101         0.64187228
 102        -0.11091640
 103        -0.05237611
 104        -0.00062989
Sym=    49a  
Ene=     0.9369
Spin= Alpha
Occup=    0.00000
   1         0.00001219
   2         0.00007001
   3        -0.00012219
   4        -0.34225093
   5        -0.00622460
   6         0.00392364
   7        -0.46874255
   8        -0.00859286
   9         0.00532888
  10         0.00004692
  11        -0.00193244
  12         0.00054076
  13         0.00182335
  14        -0.05068063
  15        -0.02279015
  16        -0.10809303
  17        -0.97901413
  18        -0.14804697
  19        -0.73773026
  20        -0.02593458
  21        -1.10987932
  22         1.02692534
  23         0.05202818
  24         0.06664774
  25         0.00175334
  26        -0.01022799
  27         0.13896511
  28         0.05374459
  29         0.02281229
  30         0.10818133
  31         0.97882798
  32         0.17404581
  33        -0.73183383
  34        -0.02967352
  35         1.07284326
  36         1.06664492
  37         0.02717091
  38        -0.06670837
  39         0.00197638
  40         0.00918827
  41        -0.14248930
  42         0.04366339
  43         0.00001120
  44         0.00006363
  45        -0.00010438
  46         0.34225157
  47         0.00621919
  48        -0.00395166
  49         0.46874104
  50         0.00860227
  51        -0.00531534
  52         0.00004602
  53        -0.00193318
  54         0.00054572
  55         0.00182316
  56        -0.05068085
  57        -0.02279073
  58        -0.10809421
  59        -0.97902092
  60         0.14803473
  61         0.73773797
  62         0.02593875
  63         1.10991181
  64        -1.02695079
  65        -0.05204861
  66         0.06664929
  67         0.00173924
  68        -0.01022357
  69         0.13896651
  70         0.05374352
  71         0.02281073
  72         0.10817187
  73         0.97885372
  74        -0.17403687
  75         0.73183872
  76         0.02965963
  77        -1.07286254
  78        -1.06666015
  79        -0.02715545
  80        -0.06670954
  81         0.00196118
  82         0.00918377
  83        -0.14249058
  84         0.04366266
  85        -0.22917389
  86        -0.47343399
  87        -0.05414545
  88        -0.05651702
  89        -0.00147120
  90         0.22916839
  91         0.47358903
  92         0.05614694
  93        -0.05449508
  94        -0.00273503
  95        -0.22917711
  96        -0.47345286
  97         0.05414723
  98         0.05651591
  99         0.00146519
 100         0.22916693
 101         0.47359849
 102        -0.05614768
 103         0.05449443
 104         0.00272886
Sym=    50a  
Ene=     1.0053
Spin= Alpha
Occup=    0.00000
   1        -0.09673846
   2        -0.58924994
   3         1.46580450
   4         0.00293470
   5        -0.16515198
   6        -0.00627805
   7        -0.01407928
   8         0.79143706
   9         0.02999442
  10        -0.11972319
  11        -0.00255701
  12         0.00766246
  13         0.00410303
  14         0.00023737
  15         0.14476243
  16         0.80549799
  17         0.16518736
  18         0.60254776
  19        -0.03954846
  20        -0.00878416
  21        -1.15199919
  22        -0.82410022
  23        -0.01706085
  24        -0.01023139
  25        -0.00401540
  26        -0.00137818
  27         0.07891013
  28        -0.07533326
  29        -0.14506297
  30        -0.80681666
  31        -0.16257966
  32        -0.60030056
  33        -0.06107766
  34         0.00499360
  35         1.17962842
  36        -0.78275922
  37        -0.04375455
  38         0.01036984
  39        -0.00194910
  40         0.00304999
  41        -0.07325120
  42        -0.08079082
  43         0.09679177
  44         0.58948394
  45        -1.46650306
  46         0.00293775
  47        -0.16514812
  48        -0.00628267
  49        -0.01407281
  50         0.79187805
  51         0.03002111
  52         0.11975559
  53         0.00255686
  54        -0.00766463
  55        -0.00411877
  56        -0.00023835
  57        -0.14506172
  58        -0.80681245
  59        -0.16260999
  60         0.60208705
  61        -0.03915873
  62        -0.00876892
  63        -1.15099963
  64        -0.82523169
  65        -0.01712887
  66         0.01025340
  67         0.00401378
  68         0.00138316
  69        -0.07887262
  70         0.07529530
  71         0.14476319
  72         0.80550169
  73         0.16519443
  74        -0.60075436
  75        -0.06147123
  76         0.00497564
  77         1.18055710
  78        -0.78159976
  79        -0.04371953
  80        -0.01035039
  81         0.00195047
  82        -0.00306045
  83         0.07328313
  84         0.08083209
  85        -0.12039968
  86        -0.12315547
  87        -0.04638381
  88         0.03237167
  89         0.00178312
  90         0.12002648
  91         0.12226265
  92         0.04507609
  93         0.03396167
  94         0.00073987
  95         0.12002004
  96         0.12225967
  97        -0.04625468
  98         0.03229853
  99         0.00177541
 100        -0.12040022
 101        -0.12315423
 102         0.04520216
 103         0.03404131
 104         0.00073849
Sym=    51a  
Ene=     1.0241
Spin= Alpha
Occup=    0.00000
   1        -0.06864367
   2        -0.39404288
   3         0.74102602
   4         0.00240605
   5        -0.13514062
   6        -0.00512844
   7        -0.01429895
   8         0.80398122
   9         0.03044054
  10        -0.06120719
  11        -0.00144639
  12         0.00341288
  13         0.01518961
  14         0.00059327
  15         0.25044017
  16         1.12159691
  17        -2.04513526
  18        -0.18263921
  19         0.41752749
  20         0.01790687
  21         0.64838339
  22        -1.12531483
  23        -0.05017599
  24        -0.04962317
  25        -0.00193840
  26         0.00311747
  27         0.00977579
  28        -0.02097952
  29         0.25025004
  30         1.12058323
  31        -2.04495738
  32        -0.16825767
  33        -0.42395353
  34        -0.01394500
  35         0.60907042
  36         1.14749048
  37         0.03585832
  38        -0.04964111
  39        -0.00031930
  40         0.00267741
  41         0.00814344
  42         0.02162652
  43        -0.06855614
  44        -0.39347581
  45         0.73961360
  46        -0.00240002
  47         0.13488492
  48         0.00508394
  49         0.01427472
  50        -0.80305060
  51        -0.03036404
  52        -0.06107243
  53        -0.00144486
  54         0.00340925
  55         0.01518826
  56         0.00059302
  57         0.25024900
  58         1.12057972
  59        -2.04493081
  60         0.18322428
  61        -0.41755705
  62        -0.01791961
  63        -0.64950836
  64         1.12456427
  65         0.05013513
  66        -0.04960930
  67        -0.00195476
  68         0.00313491
  69         0.00967503
  70        -0.02090995
  71         0.25043985
  72         1.12159483
  73        -2.04514618
  74         0.16767419
  75         0.42390599
  76         0.01393277
  77        -0.60793094
  78        -1.14820313
  79        -0.03586293
  80        -0.04965360
  81        -0.00033594
  82         0.00266128
  83         0.00823937
  84         0.02170202
  85         0.32093443
  86         0.62503540
  87         0.08006388
  88        -0.05002559
  89        -0.00285585
  90         0.32111723
  91         0.62506463
  92         0.07826412
  93         0.05293557
  94         0.00104311
  95         0.32112210
  96         0.62506665
  97        -0.08009620
  98         0.05004962
  99         0.00284455
 100         0.32093404
 101         0.62503411
 102        -0.07823259
 103        -0.05291070
 104        -0.00104853
Sym=    52a  
Ene=     1.0464
Spin= Alpha
Occup=    0.00000
   1         0.00000084
   2        -0.00000562
   3        -0.00002649
   4         0.01064196
   5        -0.03303577
   6         0.87779785
   7        -0.01621588
   8         0.05056202
   9        -1.34172437
  10         0.00022325
  11        -0.00006011
  12         0.00346223
  13         0.00013111
  14         0.00004685
  15         0.00003459
  16         0.00016285
  17        -0.00009086
  18         0.00069940
  19        -0.00217071
  20         0.05828567
  21         0.00278188
  22        -0.00815807
  23         0.21406116
  24         0.00751368
  25        -0.09205086
  26         0.08576028
  27         0.00212002
  28         0.00449218
  29         0.00003410
  30         0.00015734
  31        -0.00037181
  32         0.00071270
  33        -0.00222841
  34         0.05828792
  35         0.00238964
  36        -0.00806765
  37         0.21409474
  38        -0.00394432
  39        -0.08901393
  40        -0.08913905
  41        -0.00444552
  42         0.00226860
  43        -0.00000579
  44        -0.00002026
  45         0.00007613
  46         0.01069404
  47        -0.03303451
  48         0.87782960
  49        -0.01636291
  50         0.05052836
  51        -1.34178992
  52        -0.00022692
  53         0.00005964
  54        -0.00346293
  55        -0.00013072
  56        -0.00005575
  57        -0.00002045
  58        -0.00010091
  59         0.00003983
  60         0.00074982
  61        -0.00215225
  62         0.05829083
  63         0.00244404
  64        -0.00818315
  65         0.21408933
  66        -0.00753019
  67         0.09205015
  68        -0.08576218
  69        -0.00210754
  70        -0.00449386
  71        -0.00001837
  72        -0.00008653
  73         0.00017546
  74         0.00069171
  75        -0.00216330
  76         0.05828569
  77         0.00265055
  78        -0.00820558
  79         0.21406122
  80         0.00395030
  81         0.08901463
  82         0.08913632
  83         0.00443441
  84        -0.00226636
  85         0.00004958
  86         0.00008128
  87         0.00098452
  88        -0.00304290
  89         0.08091362
  90        -0.00010014
  91         0.00005984
  92         0.00099982
  93        -0.00304535
  94         0.08091716
  95         0.00006348
  96        -0.00004579
  97         0.00098814
  98        -0.00303585
  99         0.08091769
 100         0.00001960
 101        -0.00001345
 102         0.00098562
 103        -0.00304238
 104         0.08091360
Sym=    53a  
Ene=     1.0816
Spin= Alpha
Occup=    0.00000
   1         0.00000934
   2        -0.00002919
   3        -0.00062460
   4        -0.00398525
   5         0.01267341
   6        -0.33549034
   7         0.00835771
   8        -0.02604409
   9         0.70181539
  10         0.00606610
  11        -0.00159676
  12         0.09204739
  13         0.00345586
  14         0.00118819
  15        -0.00005530
  16        -0.00022353
  17         0.00152280
  18         0.00116944
  19        -0.00322806
  20         0.08878541
  21        -0.00198123
  22         0.00685377
  23        -0.20544403
  24         0.01754134
  25        -0.29612308
  26         0.17445989
  27         0.00293792
  28         0.01321053
  29         0.00016946
  30         0.00074945
  31        -0.00237693
  32         0.00103516
  33        -0.00325610
  34         0.08879200
  35        -0.00329958
  36         0.00689864
  37        -0.20539747
  38        -0.00596463
  39        -0.28987257
  40        -0.18539165
  41        -0.01046490
  42         0.00866379
  43        -0.00001646
  44        -0.00000684
  45         0.00068476
  46        -0.00394844
  47         0.01267967
  48        -0.33544450
  49         0.00822102
  50        -0.02608422
  51         0.70172899
  52        -0.00607043
  53         0.00159629
  54        -0.09204565
  55        -0.00345701
  56        -0.00119938
  57         0.00006079
  58         0.00025089
  59        -0.00149901
  60         0.00121784
  61        -0.00319527
  62         0.08879197
  63        -0.00237780
  64         0.00681639
  65        -0.20541158
  66        -0.01756442
  67         0.29612043
  68        -0.17446269
  69        -0.00292124
  70        -0.01321944
  71        -0.00015321
  72        -0.00067821
  73         0.00216448
  74         0.00100760
  75        -0.00318360
  76         0.08878913
  77        -0.00295573
  78         0.00676703
  79        -0.20543561
  80         0.00597491
  81         0.28987471
  82         0.18538781
  83         0.01045393
  84        -0.00866135
  85         0.00020239
  86         0.00005029
  87         0.00148236
  88        -0.00467836
  89         0.12501873
  90        -0.00037890
  91         0.00007197
  92         0.00157244
  93        -0.00467186
  94         0.12502284
  95        -0.00007227
  96        -0.00002682
  97         0.00148841
  98        -0.00467747
  99         0.12502364
 100         0.00026556
 101        -0.00003157
 102         0.00156136
 103        -0.00467705
 104         0.12501784
Sym=    54a  
Ene=     1.0885
Spin= Alpha
Occup=    0.00000
   1        -0.00000209
   2         0.00001111
   3         0.00013820
   4         0.01066463
   5        -0.03308401
   6         0.87901978
   7        -0.01965941
   8         0.06116284
   9        -1.62796456
  10        -0.00130088
  11         0.00034343
  12        -0.01977670
  13        -0.00074401
  14        -0.00025018
  15        -0.00001180
  16        -0.00003847
  17        -0.00007579
  18         0.00074089
  19        -0.00228877
  20         0.06122278
  21         0.00687393
  22        -0.02203125
  23         0.58893342
  24         0.00337615
  25         0.03012948
  26         0.06121722
  27         0.00267128
  28        -0.00037892
  29        -0.00001013
  30        -0.00005172
  31         0.00020139
  32        -0.00077739
  33         0.00229896
  34        -0.06121009
  35        -0.00677914
  36         0.02231781
  37        -0.58893089
  38         0.00458940
  39        -0.03225106
  40         0.06003943
  41         0.00187725
  42         0.00194777
  43        -0.00000014
  44        -0.00001817
  45        -0.00013603
  46        -0.01068669
  47         0.03306534
  48        -0.87900412
  49         0.01974589
  50        -0.06135049
  51         1.62794008
  52        -0.00129459
  53         0.00034376
  54        -0.01977830
  55        -0.00074110
  56        -0.00024705
  57        -0.00002959
  58        -0.00011529
  59         0.00054809
  60        -0.00080322
  61         0.00224449
  62        -0.06121215
  63        -0.00704943
  64         0.02243435
  65        -0.58892288
  66         0.00335138
  67         0.03014592
  68         0.06120416
  69         0.00265204
  70        -0.00040551
  71         0.00003474
  72         0.00013401
  73        -0.00062310
  74         0.00080364
  75        -0.00237606
  76         0.06121909
  77         0.00711487
  78        -0.02187570
  79         0.58893613
  80         0.00460463
  81        -0.03223370
  82         0.06005417
  83         0.00189230
  84         0.00194553
  85        -0.00015298
  86        -0.00000142
  87         0.00113271
  88        -0.00349016
  89         0.09274455
  90         0.00016321
  91         0.00002505
  92        -0.00113156
  93         0.00349229
  94        -0.09273330
  95        -0.00004194
  96         0.00000230
  97        -0.00111521
  98         0.00347624
  99        -0.09273412
 100         0.00001404
 101        -0.00000922
 102         0.00111688
 103        -0.00349936
 104         0.09274450
Sym=    55a  
Ene=     1.1010
Spin= Alpha
Occup=    0.00000
   1         0.00217358
   2         0.22175027
   3         1.45452885
   4         0.00219477
   5        -0.12340984
   6        -0.00484386
   7         0.01958706
   8        -1.10099386
   9        -0.04131230
  10        -0.05706858
  11        -0.00095966
  12         0.00459070
  13        -0.02184293
  14        -0.00074364
  15         0.27802982
  16         1.17025173
  17        -5.30294373
  18        -0.29652019
  19        -0.35902096
  20        -0.00987874
  21        -1.28689870
  22         2.73089075
  23         0.11812516
  24         0.11568846
  25         0.00370776
  26        -0.01316534
  27         0.12595947
  28         0.07744426
  29        -0.27805061
  30        -1.17034961
  31         5.30302937
  32         0.30906879
  33        -0.34793468
  34        -0.01684030
  35         1.18889489
  36         2.77588996
  37         0.09009356
  38        -0.11577627
  39         0.00165380
  40         0.01159240
  41        -0.13123261
  42         0.06834522
  43        -0.00217123
  44        -0.22170398
  45        -1.45450531
  46         0.00219781
  47        -0.12349550
  48        -0.00471193
  49         0.01957662
  50        -1.10075379
  51        -0.04157415
  52         0.05708147
  53         0.00096024
  54        -0.00458671
  55         0.02184649
  56         0.00074379
  57        -0.27805155
  58        -1.17035366
  59         5.30304261
  60        -0.29649264
  61        -0.35897292
  62        -0.00984438
  63        -1.28686250
  64         2.73078338
  65         0.11822122
  66        -0.11567130
  67        -0.00369907
  68         0.01315652
  69        -0.12597875
  70        -0.07743962
  71         0.27802936
  72         1.17024939
  73        -5.30294005
  74         0.30909884
  75        -0.34798510
  76        -0.01681152
  77         1.18892970
  78         2.77600004
  79         0.08996246
  80         0.11579348
  81        -0.00162440
  82        -0.01159716
  83         0.13121436
  84        -0.06835274
  85        -0.64965671
  86        -0.03687937
  87         0.11823604
  88        -0.06770649
  89        -0.00393194
  90         0.64965198
  91         0.03684180
  92        -0.11575176
  93        -0.07197153
  94        -0.00126933
  95         0.64965424
  96         0.03684187
  97         0.11823811
  98        -0.06770929
  99        -0.00390666
 100        -0.64965494
 101        -0.03687954
 102        -0.11575010
 103        -0.07196992
 104        -0.00126581
Sym=    56a  
Ene=     1.1419
Spin= Alpha
Occup=    0.00000
   1         0.00000046
   2         0.00000035
   3        -0.00001670
   4         0.72427892
   5         0.01319634
   6        -0.00824467
   7        -1.99207184
   8        -0.03628811
   9         0.02268564
  10        -0.00004914
  11         0.00242020
  12        -0.00070090
  13        -0.00228909
  14         0.06352570
  15         0.16536527
  16         0.78080425
  17        -1.99993917
  18         0.15807294
  19        -0.04092580
  20        -0.00346462
  21        -1.21541790
  22        -0.30547804
  23         0.00323595
  24         0.00352376
  25        -0.00590052
  26         0.00585388
  27        -0.10039084
  28        -0.19245564
  29         0.16536062
  30         0.78078509
  31        -1.99994178
  32         0.15651547
  33         0.04666773
  34        -0.00015795
  35        -1.22554954
  36         0.26098154
  37         0.02467663
  38         0.00324860
  39         0.00845949
  40         0.00186503
  41        -0.11397761
  42         0.18472267
  43        -0.00000058
  44         0.00000079
  45         0.00002138
  46         0.72428070
  47         0.01319328
  48        -0.00829311
  49        -1.99208494
  50        -0.03628040
  51         0.02278694
  52         0.00004959
  53        -0.00242297
  54         0.00069896
  55         0.00228935
  56        -0.06352591
  57        -0.16536642
  58        -0.78081001
  59         1.99995446
  60         0.15807425
  61        -0.04092477
  62        -0.00347294
  63        -1.21542520
  64        -0.30548350
  65         0.00320652
  66        -0.00352280
  67         0.00590321
  68        -0.00584791
  69         0.10038996
  70         0.19245592
  71        -0.16536108
  72        -0.78078689
  73         1.99992872
  74         0.15651658
  75         0.04666584
  76        -0.00016926
  77        -1.22553893
  78         0.26097893
  79         0.02472664
  80        -0.00324757
  81        -0.00846709
  82        -0.00187661
  83         0.11397569
  84        -0.18472217
  85        -0.45282896
  86         0.04518008
  87         0.07159304
  88         0.01438892
  89        -0.00034553
  90        -0.45284542
  91         0.04516752
  92         0.07205806
  93        -0.01176925
  94        -0.00134193
  95         0.45282973
  96        -0.04518131
  97         0.07159315
  98         0.01438919
  99        -0.00035195
 100         0.45284687
 101        -0.04516927
 102         0.07205786
 103        -0.01176899
 104        -0.00134568
Sym=    57a  
Ene=     1.1836
Spin= Alpha
Occup=    0.00000
   1        -0.00000050
   2        -0.00000093
   3         0.00001451
   4         0.03877503
   5         0.00070303
   6        -0.00039041
   7        -0.26898947
   8        -0.00489840
   9         0.00294252
  10        -0.00002997
  11         0.00150684
  12        -0.00043244
  13        -0.00141829
  14         0.03937089
  15         0.38180814
  16         1.62970917
  17        -4.33137391
  18        -0.16197136
  19        -0.18080957
  20        -0.00486283
  21         1.16931959
  22         1.15032756
  23         0.02921628
  24        -0.01042514
  25        -0.00354758
  26        -0.00482208
  27         0.15771798
  28        -0.03837688
  29        -0.38180772
  30        -1.62970725
  31         4.33137112
  32         0.16829737
  33        -0.17479241
  34        -0.00862431
  35        -1.20947718
  36         1.10699099
  37         0.05619187
  38         0.01049051
  39         0.00022276
  40         0.00577112
  41        -0.15454682
  42        -0.04963935
  43         0.00000058
  44         0.00000097
  45        -0.00001629
  46        -0.03877442
  47        -0.00070382
  48         0.00036071
  49         0.26898763
  50         0.00489042
  51        -0.00290289
  52        -0.00003032
  53         0.00150832
  54        -0.00042549
  55        -0.00141854
  56         0.03937085
  57         0.38181354
  58         1.62973170
  59        -4.33141874
  60         0.16197480
  61         0.18080654
  62         0.00485458
  63        -1.16936235
  64        -1.15033231
  65        -0.02922322
  66        -0.01042533
  67        -0.00357931
  68        -0.00481069
  69         0.15772008
  70        -0.03837695
  71        -0.38181371
  72        -1.62973240
  73         4.33142225
  74        -0.16830032
  75         0.17478867
  76         0.00862227
  77         1.20951540
  78        -1.10699159
  79        -0.05623032
  80         0.01049177
  81         0.00019672
  82         0.00575734
  83        -0.15454936
  84        -0.04964032
  85         0.73299762
  86         0.15748021
  87         0.05898831
  88        -0.00611201
  89        -0.00094738
  90        -0.73299826
  91        -0.15748001
  92        -0.05873296
  93        -0.00825614
  94         0.00037279
  95         0.73301401
  96         0.15748906
  97        -0.05898948
  98         0.00611223
  99         0.00092988
 100        -0.73301433
 101        -0.15748861
 102         0.05873392
 103         0.00825640
 104        -0.00039140
Sym=    58a  
Ene=     1.1904
Spin= Alpha
Occup=    0.00000
   1         0.05452747
   2         0.10593121
   3        -1.52426758
   4        -0.00265098
   5         0.14857216
   6         0.00562000
   7        -0.00340932
   8         0.19318680
   9         0.00731862
  10        -0.03851006
  11        -0.00052907
  12         0.00356238
  13        -0.02749406
  14        -0.00096116
  15         0.30146164
  16         1.26291133
  17        -2.74724615
  18        -0.18224495
  19         0.15383578
  20         0.00801016
  21         2.05567353
  22         0.37786387
  23        -0.01063473
  24        -0.07282665
  25        -0.00568415
  26         0.00201995
  27         0.09896920
  28        -0.07856111
  29        -0.30147028
  30        -1.26296037
  31         2.74732439
  32         0.17661206
  33         0.16042085
  34         0.00395199
  35        -2.06776583
  36         0.30264497
  37         0.03628084
  38         0.07294333
  39        -0.00059147
  40        -0.00025348
  41        -0.09304678
  42        -0.08560539
  43        -0.05453723
  44        -0.10594235
  45         1.52431772
  46        -0.00265087
  47         0.14859242
  48         0.00559076
  49        -0.00342496
  50         0.19325118
  51         0.00739537
  52         0.03852159
  53         0.00050775
  54        -0.00356684
  55         0.02748872
  56         0.00096227
  57        -0.30146074
  58        -1.26291701
  59         2.74722419
  60        -0.18220436
  61         0.15388777
  62         0.00794274
  63         2.05563965
  64         0.37775363
  65        -0.01058772
  66         0.07282488
  67         0.00566667
  68        -0.00193684
  69        -0.09895725
  70         0.07857652
  71         0.30145783
  72         1.26289634
  73        -2.74722275
  74         0.17664967
  75         0.16037929
  76         0.00387551
  77        -2.06771414
  78         0.30269782
  79         0.03642217
  80        -0.07295369
  81         0.00056593
  82         0.00017053
  83         0.09304760
  84         0.08559104
  85         0.84047175
  86         0.42575432
  87         0.05930512
  88         0.02461002
  89         0.00022643
  90        -0.84049718
  91        -0.42575904
  92        -0.06014404
  93         0.02243733
  94         0.00159107
  95        -0.84048727
  96        -0.42575336
  97         0.05930440
  98         0.02461486
  99         0.00018377
 100         0.84044702
 101         0.42575122
 102        -0.06014258
 103         0.02243490
 104         0.00155606
Sym=    59a  
Ene=     1.1928
Spin= Alpha
Occup=    0.00000
   1        -0.00000686
   2        -0.00001396
   3         0.00016472
   4         0.00005126
   5        -0.00000895
   6        -0.00000034
   7        -0.00015653
   8        -0.00005134
   9        -0.00000106
  10         0.00258662
  11        -0.13049981
  12        -0.00243478
  13        -0.00166933
  14         0.00489297
  15        -0.00000010
  16         0.00000633
  17        -0.00015044
  18         0.00203274
  19        -0.00627320
  20         0.16625045
  21        -0.00191637
  22         0.00500564
  23        -0.13200849
  24         0.02240312
  25         0.07922345
  26         0.36864656
  27         0.01484524
  28         0.00148772
  29         0.00000217
  30         0.00000698
  31         0.00023078
  32         0.00198859
  33        -0.00627787
  34         0.16625044
  35        -0.00126007
  36         0.00495582
  37        -0.13201856
  38        -0.02581635
  39         0.09196360
  40        -0.36545209
  41        -0.01263921
  42        -0.00790486
  43         0.00000165
  44        -0.00001280
  45        -0.00015481
  46        -0.00007390
  47        -0.00002101
  48        -0.00000100
  49         0.00025674
  50        -0.00003095
  51        -0.00000264
  52         0.00257766
  53        -0.13050018
  54        -0.00243392
  55        -0.00167760
  56         0.00489332
  57         0.00006501
  58         0.00028189
  59        -0.00073921
  60        -0.00200055
  61         0.00622895
  62        -0.16625163
  63         0.00147386
  64        -0.00497501
  65         0.13201392
  66         0.02239061
  67         0.07922227
  68         0.36864705
  69         0.01486847
  70         0.00145810
  71        -0.00006533
  72        -0.00027748
  73         0.00068306
  74        -0.00200776
  75         0.00622939
  76        -0.16625266
  77         0.00173946
  78        -0.00498695
  79         0.13201232
  80        -0.02579360
  81         0.09196356
  82        -0.36545215
  83        -0.01266905
  84        -0.00791966
  85        -0.00009659
  86        -0.00003900
  87         0.00106307
  88        -0.00330418
  89         0.08782034
  90         0.00004928
  91         0.00005600
  92         0.00104996
  93        -0.00329239
  94         0.08782060
  95         0.00010466
  96         0.00006102
  97        -0.00107187
  98         0.00330155
  99        -0.08782011
 100        -0.00013773
 101        -0.00004264
 102        -0.00104835
 103         0.00329437
 104        -0.08782074
Sym=    60a  
Ene=     1.2577
Spin= Alpha
Occup=    0.00000
   1         0.00000484
   2         0.00000754
   3        -0.00013205
   4         0.00001041
   5         0.00001125
   6         0.00000054
   7        -0.00000291
   8         0.00005040
   9         0.00000157
  10         0.00122574
  11        -0.06164678
  12        -0.00115050
  13        -0.00078432
  14         0.00230532
  15         0.00000293
  16         0.00000928
  17         0.00007148
  18        -0.00204122
  19         0.00639093
  20        -0.16923016
  21         0.00343839
  22        -0.01006497
  23         0.26406164
  24        -0.00839151
  25         0.36703073
  26        -0.01069510
  27         0.00402128
  28        -0.01393925
  29         0.00000412
  30         0.00001095
  31        -0.00021814
  32        -0.00203909
  33         0.00639756
  34        -0.16923004
  35         0.00297615
  36        -0.01000044
  37         0.26406949
  38        -0.00607536
  39         0.36642107
  40         0.02437519
  41         0.00533500
  42        -0.01352154
  43         0.00000684
  44         0.00004706
  45         0.00008963
  46         0.00000839
  47         0.00002315
  48         0.00000031
  49        -0.00008990
  50         0.00003486
  51         0.00000298
  52         0.00122720
  53        -0.06164672
  54        -0.00115079
  55        -0.00077963
  56         0.00230650
  57        -0.00001095
  58        -0.00005131
  59         0.00009874
  60         0.00203327
  61        -0.00635109
  62         0.16923218
  63        -0.00312449
  64         0.00988110
  65        -0.26407268
  66        -0.00837917
  67         0.36703192
  68        -0.01069624
  69         0.00401912
  70        -0.01391399
  71         0.00002281
  72         0.00009166
  73        -0.00012927
  74         0.00203220
  75        -0.00635351
  76         0.16923147
  77        -0.00330287
  78         0.00987901
  79        -0.26406988
  80        -0.00609526
  81         0.36642125
  82         0.02437581
  83         0.00534409
  84        -0.01350496
  85         0.00014723
  86         0.00001770
  87        -0.00238342
  88         0.00740845
  89        -0.19684322
  90        -0.00001015
  91        -0.00005624
  92        -0.00238092
  93         0.00741929
  94        -0.19684272
  95        -0.00000020
  96        -0.00004202
  97         0.00238297
  98        -0.00739819
  99         0.19684345
 100         0.00011465
 101         0.00000168
 102         0.00238448
 103        -0.00740599
 104         0.19684333
Sym=    61a  
Ene=     1.3192
Spin= Alpha
Occup=    0.00000
   1         0.00000064
   2         0.00000207
   3        -0.00000857
   4         0.78418641
   5         0.01428937
   6        -0.00896769
   7        -3.81621930
   8        -0.06953942
   9         0.04370011
  10        -0.00006564
  11         0.00338162
  12        -0.00093031
  13        -0.00318814
  14         0.08851833
  15         0.17922356
  16         0.77315415
  17        -4.02470434
  18         0.21376908
  19        -0.02063840
  20        -0.00336893
  21        -3.98291210
  22        -0.91715181
  23         0.01360608
  24         0.18880241
  25        -0.00152380
  26        -0.00925744
  27        -0.03140509
  28        -0.15444766
  29        -0.17922160
  30        -0.77314530
  31         4.02471629
  32        -0.21289262
  33        -0.02841377
  34         0.00148847
  35         4.01295103
  36        -0.77147034
  37        -0.07750851
  38        -0.18857362
  39        -0.01014784
  40         0.01256869
  41         0.04242946
  42        -0.15150870
  43         0.00000094
  44         0.00000282
  45        -0.00001140
  46        -0.78418499
  47        -0.01428597
  48         0.00900261
  49         3.81622721
  50         0.06953411
  51        -0.04380207
  52        -0.00006564
  53         0.00337521
  54        -0.00093173
  55        -0.00318834
  56         0.08851809
  57         0.17922021
  58         0.77313979
  59        -4.02468307
  60        -0.21376746
  61         0.02063674
  62         0.00339273
  63         3.98291388
  64         0.91716602
  65        -0.01363092
  66         0.18879953
  67        -0.00148915
  68        -0.00929338
  69        -0.03140610
  70        -0.15444904
  71        -0.17922161
  72        -0.77314515
  73         4.02468527
  74         0.21289643
  75         0.02841151
  76        -0.00148791
  77        -4.01295790
  78         0.77147374
  79         0.07752885
  80        -0.18856983
  81        -0.01014571
  82         0.01260965
  83         0.04243057
  84        -0.15150784
  85        -0.59435308
  86        -0.26486127
  87         0.05841949
  88        -0.00570685
  89        -0.00089363
  90         0.59434419
  91         0.26486356
  92        -0.05817830
  93        -0.00782952
  94         0.00038461
  95        -0.59435303
  96        -0.26486142
  97        -0.05841842
  98         0.00570592
  99         0.00092707
 100         0.59435320
 101         0.26486303
 102         0.05817810
 103         0.00782965
 104        -0.00038046
Sym=    62a  
Ene=     1.3793
Spin= Alpha
Occup=    0.00000
   1         0.00000022
   2         0.00000081
   3        -0.00000248
   4         0.19329749
   5         0.00352244
   6        -0.00220115
   7        -2.24279329
   8        -0.04086961
   9         0.02567873
  10         0.00005908
  11        -0.00292566
  12         0.00083013
  13         0.00270480
  14        -0.07508565
  15        -0.18276687
  16        -0.81016204
  17        -1.16496280
  18        -0.44499748
  19        -0.02646453
  20         0.00433789
  21         0.58286600
  22        -1.41132346
  23        -0.06007600
  24         0.14745915
  25        -0.00326931
  26        -0.00513829
  27        -0.05643210
  28        -0.18946970
  29        -0.18276850
  30        -0.81016891
  31        -1.16493987
  32        -0.44564951
  33         0.01023499
  34         0.00585165
  35         0.53230304
  36         1.43164298
  37         0.04735525
  38         0.14718077
  39         0.01073225
  40        -0.00918436
  41        -0.06991366
  42         0.18470022
  43         0.00000055
  44         0.00000178
  45        -0.00000675
  46         0.19329374
  47         0.00352285
  48        -0.00217993
  49        -2.24278300
  50        -0.04086965
  51         0.02557546
  52        -0.00005779
  53         0.00292384
  54        -0.00080507
  55        -0.00270430
  56         0.07508670
  57         0.18276786
  58         0.81016626
  59         1.16495500
  60        -0.44499928
  61        -0.02646530
  62         0.00432399
  63         0.58288021
  64        -1.41132558
  65        -0.05995831
  66        -0.14745592
  67         0.00321247
  68         0.00516935
  69         0.05643323
  70         0.18947156
  71         0.18276758
  72         0.81016541
  73         1.16495486
  74        -0.44564893
  75         0.01023437
  76         0.00585097
  77         0.53228705
  78         1.43165143
  79         0.04723663
  80        -0.14718283
  81        -0.01068977
  82         0.00919433
  83         0.06991573
  84        -0.18470281
  85         0.78147067
  86         0.07673043
  87        -0.01513125
  88        -0.01105550
  89        -0.00032135
  90         0.78147137
  91         0.07673164
  92        -0.01551283
  93         0.01049601
  94         0.00070185
  95        -0.78147556
  96        -0.07673042
  97        -0.01513212
  98        -0.01105419
  99        -0.00035390
 100        -0.78147071
 101        -0.07672994
 102        -0.01551236
 103         0.01049563
 104         0.00071757
Sym=    63a  
Ene=     1.3950
Spin= Alpha
Occup=    0.00000
   1        -0.00000606
   2        -0.00004045
   3        -0.00004843
   4         0.00004827
   5         0.00001067
   6         0.00000003
   7        -0.00085120
   8         0.00004917
   9         0.00001165
  10        -0.00289178
  11         0.14632994
  12         0.00272973
  13         0.00187291
  14        -0.00551145
  15        -0.00008839
  16        -0.00039203
  17        -0.00027797
  18         0.00144158
  19        -0.00506048
  20         0.13505014
  21        -0.00354432
  22         0.01182309
  23        -0.33360707
  24         0.00187640
  25        -0.32881410
  26        -0.07795055
  27        -0.00693706
  28         0.01134204
  29        -0.00007424
  30        -0.00033487
  31        -0.00077125
  32        -0.00182899
  33         0.00510884
  34        -0.13504414
  35         0.00410998
  36        -0.01197389
  37         0.33359489
  38        -0.01115341
  39         0.33130836
  40        -0.06563921
  41         0.00149424
  42        -0.01321189
  43         0.00000969
  44         0.00005496
  45         0.00004254
  46         0.00010280
  47         0.00002035
  48        -0.00000092
  49        -0.00110688
  50         0.00001865
  51         0.00001523
  52         0.00289935
  53        -0.14632986
  54        -0.00273085
  55        -0.00186543
  56         0.00551092
  57         0.00009741
  58         0.00042241
  59         0.00031746
  60         0.00142939
  61        -0.00507175
  62         0.13505074
  63        -0.00373463
  64         0.01173755
  65        -0.33360964
  66        -0.00186640
  67         0.32881617
  68         0.07794908
  69         0.00692974
  70        -0.01131245
  71         0.00008216
  72         0.00036573
  73         0.00059081
  74        -0.00184911
  75         0.00510565
  76        -0.13504389
  77         0.00426457
  78        -0.01212767
  79         0.33358803
  80         0.01118697
  81        -0.33130841
  82         0.06563819
  83        -0.00151278
  84         0.01320285
  85         0.00044078
  86         0.00005312
  87         0.00322210
  88        -0.01006155
  89         0.26764704
  90         0.00036214
  91        -0.00001066
  92        -0.00324805
  93         0.01009317
  94        -0.26764572
  95        -0.00034306
  96        -0.00007545
  97         0.00322532
  98        -0.01006200
  99         0.26764737
 100        -0.00028686
 101        -0.00002042
 102        -0.00324420
 103         0.01008537
 104        -0.26764626
Sym=    64a  
Ene=     1.4103
Spin= Alpha
Occup=    0.00000
   1         0.00000183
   2         0.00000134
   3        -0.00004830
   4        -0.00094901
   5         0.00255505
   6        -0.06779840
   7         0.00820502
   8        -0.02325962
   9         0.61890248
  10         0.01345056
  11        -0.00355611
  12         0.20492149
  13         0.00767606
  14         0.00263036
  15         0.00003536
  16         0.00014673
  17         0.00010543
  18         0.00084924
  19        -0.00246419
  20         0.06614062
  21        -0.00695356
  22         0.02269894
  23        -0.59108121
  24         0.01571494
  25        -0.36875020
  26         0.12283383
  27         0.00019185
  28         0.01541892
  29         0.00000144
  30         0.00001839
  31         0.00001340
  32        -0.00077070
  33         0.00251118
  34        -0.06612984
  35         0.00685069
  36        -0.02199260
  37         0.59111306
  38         0.00125939
  39         0.36427933
  40         0.13647281
  41         0.00954174
  42        -0.01203962
  43         0.00000695
  44         0.00002790
  45        -0.00004846
  46         0.00094462
  47        -0.00254726
  48         0.06779072
  49        -0.00795620
  50         0.02327683
  51        -0.61893699
  52         0.01345090
  53        -0.00355704
  54         0.20493605
  55         0.00767871
  56         0.00262008
  57         0.00000782
  58         0.00002277
  59        -0.00005457
  60        -0.00078632
  61         0.00247213
  62        -0.06613100
  63         0.00690172
  64        -0.02256904
  65         0.59109024
  66         0.01573797
  67        -0.36877756
  68         0.12279942
  69         0.00018551
  70         0.01539879
  71        -0.00003157
  72        -0.00012612
  73        -0.00002858
  74         0.00083225
  75        -0.00250513
  76         0.06613910
  77        -0.00697914
  78         0.02176206
  79        -0.59111557
  80         0.00128395
  81         0.36425172
  82         0.13650381
  83         0.00953222
  84        -0.01200497
  85        -0.00006691
  86        -0.00001761
  87         0.00244393
  88        -0.00757928
  89         0.20150511
  90        -0.00005550
  91         0.00001200
  92        -0.00244276
  93         0.00758325
  94        -0.20149721
  95         0.00002092
  96        -0.00001811
  97        -0.00244056
  98         0.00758265
  99        -0.20149678
 100         0.00007074
 101         0.00002661
 102         0.00245112
 103        -0.00758215
 104         0.20150444
Sym=    65a  
Ene=     1.4230
Spin= Alpha
Occup=    0.00000
   1        -0.00000602
   2        -0.00003263
   3        -0.00003017
   4        -0.00181276
   5         0.00559195
   6        -0.14824001
   7        -0.00350838
   8         0.01108267
   9        -0.29426189
  10        -0.00913046
  11         0.00241467
  12        -0.13913324
  13        -0.00521153
  14        -0.00178518
  15        -0.00001397
  16        -0.00005609
  17         0.00017726
  18         0.00144325
  19        -0.00454224
  20         0.12078414
  21         0.00062421
  22        -0.00143146
  23         0.03661441
  24         0.01657397
  25         0.29749456
  26         0.34979213
  27         0.01676992
  28        -0.00695142
  29         0.00000225
  30         0.00000744
  31        -0.00021886
  32         0.00144657
  33        -0.00453602
  34         0.12078177
  35         0.00032252
  36        -0.00137805
  37         0.03657129
  38        -0.02858892
  39         0.30940660
  40        -0.33848463
  41        -0.00899423
  42        -0.01574467
  43         0.00000349
  44         0.00002037
  45         0.00004209
  46        -0.00176578
  47         0.00558988
  48        -0.14822993
  49        -0.00375324
  50         0.01108552
  51        -0.29421769
  52         0.00913039
  53        -0.00241438
  54         0.13911463
  55         0.00521020
  56         0.00178347
  57         0.00000796
  58         0.00003229
  59         0.00002916
  60         0.00144448
  61        -0.00454658
  62         0.12078134
  63         0.00047859
  64        -0.00151462
  65         0.03656404
  66        -0.01658963
  67        -0.29745984
  68        -0.34980381
  69        -0.01677229
  70         0.00696320
  71         0.00000510
  72         0.00002544
  73         0.00001979
  74         0.00144502
  75        -0.00454439
  76         0.12078400
  77         0.00048120
  78        -0.00143613
  79         0.03661626
  80         0.02859392
  81        -0.30943995
  82         0.33846995
  83         0.00900061
  84         0.01576190
  85         0.00004955
  86         0.00002250
  87         0.00089081
  88        -0.00280311
  89         0.07438697
  90        -0.00002467
  91        -0.00000510
  92         0.00089012
  93        -0.00278317
  94         0.07440875
  95        -0.00005710
  96        -0.00001160
  97         0.00088664
  98        -0.00280966
  99         0.07440809
 100         0.00000416
 101         0.00000137
 102         0.00089916
 103        -0.00279412
 104         0.07438690
Sym=    66a  
Ene=     1.4932
Spin= Alpha
Occup=    0.00000
   1        -0.05555327
   2        -0.17668498
   3         1.07049880
   4         0.00301464
   5        -0.16935461
   6        -0.00640799
   7        -0.00194012
   8         0.10855131
   9         0.00409831
  10         0.11306693
  11         0.00125741
  12        -0.01131076
  13         0.10321020
  14         0.00363338
  15         0.10733143
  16         0.37178651
  17        -1.17151402
  18         0.05708379
  19        -0.01675491
  20        -0.00131222
  21         0.11623775
  22        -0.52118887
  23        -0.02102171
  24         0.38136757
  25         0.01404793
  26        -0.01833884
  27        -0.20395397
  28         0.09549668
  29         0.10733066
  30         0.37176048
  31        -1.17176207
  32         0.05640325
  33         0.01883433
  34         0.00004154
  35         0.09751760
  36         0.52496120
  37         0.01857112
  38         0.38152409
  39         0.00619985
  40        -0.01616406
  41        -0.19653593
  42        -0.11049849
  43        -0.05557719
  44        -0.17674826
  45         1.07082389
  46        -0.00301569
  47         0.16936596
  48         0.00640991
  49         0.00193433
  50        -0.10842198
  51        -0.00409752
  52         0.11307672
  53         0.00127337
  54        -0.01131316
  55         0.10321292
  56         0.00363310
  57         0.10733283
  58         0.37177102
  59        -1.17178261
  60        -0.05704118
  61         0.01676697
  62         0.00130635
  63        -0.11610372
  64         0.52106871
  65         0.02101657
  66         0.38137173
  67         0.01402718
  68        -0.01836442
  69        -0.20395698
  70         0.09550119
  71         0.10733072
  72         0.37178313
  73        -1.17149360
  74        -0.05645015
  75        -0.01882278
  76        -0.00002770
  77        -0.09763967
  78        -0.52508167
  79        -0.01856885
  80         0.38151741
  81         0.00622621
  82        -0.01617122
  83        -0.19653518
  84        -0.11049448
  85         1.03814749
  86        -0.35170664
  87        -0.07243335
  88        -0.00296867
  89         0.00078051
  90         1.03812655
  91        -0.35173170
  92        -0.07249017
  93         0.00033563
  94         0.00091748
  95         1.03812100
  96        -0.35173304
  97         0.07243007
  98         0.00297779
  99        -0.00079915
 100         1.03814732
 101        -0.35170534
 102         0.07249226
 103        -0.00032746
 104        -0.00089323
Sym=    67a  
Ene=     1.5586
Spin= Alpha
Occup=    0.00000
   1        -0.52808893
   2        -2.09943750
   3         4.71578420
   4        -0.00201026
   5         0.11313108
   6         0.00427644
   7         0.02370142
   8        -1.33285708
   9        -0.05042427
  10         0.13373291
  11         0.00249699
  12        -0.00983926
  13         0.02920644
  14         0.00095155
  15        -0.02617076
  16        -0.11440229
  17        -0.94699751
  18        -0.31466694
  19        -0.22253614
  20        -0.00455782
  21        -0.61989134
  22         0.01936114
  23         0.00821561
  24         0.06970647
  25        -0.00834822
  26         0.00332228
  27        -0.11374275
  28        -0.29720537
  29        -0.02613965
  30        -0.11428675
  31        -0.94783592
  32        -0.32245106
  33         0.21100468
  34         0.01183999
  35        -0.61903613
  36        -0.04220705
  37         0.00593252
  38         0.06930273
  39         0.01395901
  40        -0.00294780
  41        -0.13485658
  42         0.28814604
  43        -0.52815783
  44        -2.09966054
  45         4.71666598
  46         0.00201110
  47        -0.11320060
  48        -0.00427852
  49        -0.02371132
  50         1.33325366
  51         0.05044664
  52         0.13375655
  53         0.00249140
  54        -0.00984279
  55         0.02922394
  56         0.00095253
  57        -0.02613871
  58        -0.11428113
  59        -0.94784191
  60         0.31473402
  61         0.22261421
  62         0.00456397
  63         0.62014849
  64        -0.01961885
  65        -0.00822766
  66         0.06974283
  67        -0.00833982
  68         0.00334023
  69        -0.11377218
  70        -0.29720998
  71        -0.02617058
  72        -0.11440230
  73        -0.94699214
  74         0.32237779
  75        -0.21092682
  76        -0.01184168
  77         0.61879533
  78         0.04194278
  79        -0.00593645
  80         0.06926832
  81         0.01394485
  82        -0.00293723
  83        -0.13482710
  84         0.28814565
  85        -0.27768797
  86         0.04741099
  87         0.01593583
  88        -0.09940884
  89        -0.00393399
  90        -0.27763961
  91         0.04733425
  92         0.01239755
  93         0.09992498
  94         0.00360383
  95        -0.27764185
  96         0.04733460
  97        -0.01594439
  98         0.09940698
  99         0.00393419
 100        -0.27769043
 101         0.04741054
 102        -0.01239012
 103        -0.09992552
 104        -0.00360820
Sym=    68a  
Ene=     1.5774
Spin= Alpha
Occup=    0.00000
   1         0.00000067
   2         0.00000270
   3        -0.00000573
   4         0.38989053
   5         0.00710342
   6        -0.00443414
   7        -1.46029059
   8        -0.02660606
   9         0.01666141
  10         0.00006744
  11        -0.00336320
  12         0.00097082
  13         0.00318550
  14        -0.08840859
  15        -0.30515194
  16        -1.17332439
  17         3.65982628
  18        -0.29636082
  19        -0.21569507
  20        -0.00453482
  21         2.34434346
  22        -2.57856920
  23        -0.12534948
  24         0.05948934
  25        -0.00598965
  26         0.00225196
  27        -0.09172858
  28        -0.22082114
  29         0.30515242
  30         1.17332621
  31        -3.65982623
  32         0.30384093
  33        -0.20475932
  34        -0.01138321
  35        -2.25111134
  36        -2.66230297
  37        -0.07292301
  38        -0.05916269
  39        -0.01052255
  40         0.00243387
  41         0.10737714
  42        -0.21356353
  43         0.00000059
  44         0.00000240
  45        -0.00000458
  46        -0.38988954
  47        -0.00710284
  48         0.00441549
  49         1.46029008
  50         0.02660642
  51        -0.01665742
  52         0.00006851
  53        -0.00337185
  54         0.00098405
  55         0.00318594
  56        -0.08840836
  57        -0.30515228
  58        -1.17332567
  59         3.65982639
  60         0.29636079
  61         0.21569519
  62         0.00453298
  63        -2.34434303
  64         2.57856853
  65         0.12539080
  66         0.05949107
  67        -0.00601643
  68         0.00227296
  69        -0.09172809
  70        -0.22081934
  71         0.30515197
  72         1.17332441
  73        -3.65982331
  74        -0.30384108
  75         0.20475962
  76         0.01138038
  77         2.25111065
  78         2.66230136
  79         0.07292325
  80        -0.05916261
  81        -0.01056856
  82         0.00242559
  83         0.10737643
  84        -0.21356243
  85         0.90983936
  86         0.51759355
  87        -0.12595367
  88         0.06751792
  89         0.00408926
  90        -0.90983883
  91        -0.51759414
  92         0.12347070
  93         0.07206465
  94         0.00118504
  95         0.90984016
  96         0.51759373
  97         0.12595387
  98        -0.06751803
  99        -0.00408928
 100        -0.90983829
 101        -0.51759372
 102        -0.12347063
 103        -0.07206412
 104        -0.00119723
Sym=    69a  
Ene=     1.7407
Spin= Alpha
Occup=    0.00000
   1        -0.00000314
   2        -0.00001194
   3         0.00003656
   4        -0.39824081
   5        -0.00725615
   6         0.00453558
   7         0.27156377
   8         0.00493914
   9        -0.00309810
  10         0.00001029
  11        -0.00047266
  12         0.00012749
  13         0.00044819
  14        -0.01242766
  15        -0.02838018
  16        -0.16923713
  17        -0.14490473
  18         0.04959609
  19         0.18661526
  20         0.00641993
  21        -0.37879112
  22        -0.49288944
  23        -0.01396534
  24         0.06420671
  25         0.00391897
  26         0.00861957
  27        -0.32730242
  28        -0.03709024
  29        -0.02838309
  30        -0.16924984
  31        -0.14485683
  32         0.05620468
  33        -0.18469507
  34        -0.00761301
  35        -0.39605497
  36         0.47877428
  37         0.02281471
  38         0.06416293
  39         0.00583353
  40         0.00804506
  41        -0.32911655
  42         0.01334775
  43         0.00000245
  44         0.00000874
  45        -0.00003138
  46        -0.39824032
  47        -0.00725535
  48         0.00454579
  49         0.27156742
  50         0.00493925
  51        -0.00310426
  52        -0.00000989
  53         0.00046956
  54        -0.00013008
  55        -0.00044899
  56         0.01242783
  57         0.02838139
  58         0.16924259
  59         0.14489980
  60         0.04959613
  61         0.18661729
  62         0.00642906
  63        -0.37878679
  64        -0.49288884
  65        -0.01395536
  66        -0.06420394
  67        -0.00391427
  68        -0.00860031
  69         0.32730377
  70         0.03708954
  71         0.02838412
  72         0.16925400
  73         0.14485269
  74         0.05620420
  75        -0.18469536
  76        -0.00762485
  77        -0.39605794
  78         0.47878024
  79         0.02280711
  80        -0.06416056
  81        -0.00584014
  82        -0.00803199
  83         0.32911849
  84        -0.01334726
  85         0.18166242
  86        -0.20321244
  87         0.13382309
  88         0.33929286
  89         0.01114428
  90         0.18165734
  91        -0.20320695
  92         0.14580336
  93        -0.33419487
  94        -0.01435251
  95        -0.18166349
  96         0.20321283
  97         0.13382318
  98         0.33929345
  99         0.01113899
 100        -0.18165739
 101         0.20320706
 102         0.14580412
 103        -0.33419697
 104        -0.01434361
Sym=    70a  
Ene=     1.7899
Spin= Alpha
Occup=    0.00000
   1         0.43754554
   2         1.62806685
   3        -5.41082558
   4        -0.00283842
   5         0.15943495
   6         0.00603374
   7        -0.01865607
   8         1.04835138
   9         0.03967780
  10        -0.17313078
  11        -0.00231392
  12         0.01609764
  13        -0.12582627
  14        -0.00440136
  15        -0.18199261
  16        -0.75928022
  17         2.99836320
  18         0.23348159
  19         0.40411537
  20         0.01236291
  21         1.48353781
  22        -0.12147370
  23        -0.02258046
  24        -0.31092345
  25        -0.00684968
  26         0.00960029
  27         0.26157599
  28         0.07520609
  29         0.18203125
  30         0.75953022
  31        -2.99790546
  32        -0.24749186
  33         0.39532984
  34         0.01789735
  35        -1.47793207
  36        -0.17604302
  37         0.01135214
  38         0.31064416
  39         0.01184337
  40        -0.01086388
  41        -0.26611288
  42         0.05538525
  43        -0.43761655
  44        -1.62856630
  45         5.40964917
  46        -0.00282764
  47         0.15888465
  48         0.00601584
  49        -0.01865195
  50         1.04863272
  51         0.03968976
  52         0.17319197
  53         0.00231327
  54        -0.01610713
  55         0.12593593
  56         0.00440517
  57         0.18203329
  58         0.75954146
  59        -2.99790546
  60         0.23326862
  61         0.40409683
  62         0.01236318
  63         1.48325357
  64        -0.12208199
  65        -0.02259427
  66         0.31073334
  67         0.00686419
  68        -0.00959251
  69        -0.26142428
  70        -0.07485847
  71        -0.18199357
  72        -0.75928446
  73         2.99837647
  74        -0.24770321
  75         0.39534859
  76         0.01789652
  77        -1.47827793
  78        -0.17542764
  79         0.01136625
  80        -0.31083639
  81        -0.01184811
  82         0.01087396
  83         0.26629434
  84        -0.05572414
  85        -0.28838475
  86         0.36793652
  87        -0.03317630
  88        -0.18104760
  89        -0.00638565
  90         0.28846758
  91        -0.36803220
  92         0.03928614
  93        -0.17938729
  94        -0.00726220
  95         0.28845556
  96        -0.36802821
  97        -0.03288260
  98        -0.18070348
  99        -0.00638572
 100        -0.28838975
 101         0.36794238
 102         0.03959647
 103        -0.17972834
 104        -0.00728562
Sym=    71a  
Ene=     1.7986
Spin= Alpha
Occup=    0.00000
   1         0.02872980
   2         0.30061405
   3         0.96555500
   4         0.00658467
   5        -0.37020030
   6        -0.01402078
   7        -0.00321684
   8         0.18067955
   9         0.00685077
  10        -0.04950246
  11        -0.00111377
  12         0.00312047
  13         0.00281009
  14         0.00014002
  15        -0.12867087
  16        -0.62164121
  17        -0.06329681
  18        -0.19786786
  19         0.10873259
  20         0.00645354
  21        -0.16699987
  22        -0.71457213
  23        -0.02494296
  24         0.00815734
  25        -0.00384005
  26         0.01062177
  27        -0.23481994
  28        -0.18235118
  29        -0.12848898
  30        -0.62090071
  31        -0.06648167
  32        -0.19415474
  33        -0.11548054
  34        -0.00194932
  35        -0.19397127
  36         0.70784414
  37         0.02906010
  38         0.00822670
  39         0.00937507
  40         0.00685937
  41        -0.24760456
  42         0.16504400
  43         0.02824372
  44         0.29880729
  45         0.97155168
  46        -0.00658931
  47         0.37041776
  48         0.01402571
  49         0.00319570
  50        -0.17956436
  51        -0.00680365
  52        -0.04931597
  53        -0.00103783
  54         0.00310755
  55         0.00293104
  56         0.00014147
  57        -0.12848807
  58        -0.62089583
  59        -0.06648297
  60         0.19813540
  61        -0.10832714
  62        -0.00650635
  63         0.16868017
  64         0.71445949
  65         0.02479104
  66         0.00847819
  67        -0.00385393
  68         0.01045294
  69        -0.23509286
  70        -0.18244493
  71        -0.12867157
  72        -0.62164461
  73        -0.06329186
  74         0.19387251
  75         0.11587044
  76         0.00203574
  77         0.19229520
  78        -0.70802295
  79        -0.02892029
  80         0.00788507
  81         0.00937953
  82         0.00672165
  83        -0.24733526
  84         0.16497027
  85         0.08253256
  86        -0.00291810
  87         0.22985213
  88         0.34718345
  89         0.01033388
  90         0.08278144
  91        -0.00330224
  92         0.24209795
  93        -0.33877461
  94        -0.01573340
  95         0.08277735
  96        -0.00330155
  97        -0.22989327
  98        -0.34737971
  99        -0.01024799
 100         0.08253236
 101        -0.00291636
 102        -0.24204987
 103         0.33858446
 104         0.01563775
Sym=    72a  
Ene=     1.8164
Spin= Alpha
Occup=    0.00000
   1         0.00005037
   2         0.00022458
   3        -0.00036324
   4        -0.00000745
   5        -0.00009248
   6        -0.00000337
   7        -0.00008739
   8         0.00039835
   9         0.00001604
  10        -0.00508147
  11         0.25324945
  12         0.00473046
  13         0.00319393
  14        -0.00947826
  15        -0.00015764
  16        -0.00066312
  17         0.00166702
  18         0.00245031
  19        -0.00754309
  20         0.20517554
  21         0.00440337
  22        -0.01469146
  23         0.36343380
  24        -0.02990606
  25        -0.06768034
  26        -0.47839587
  27        -0.01891070
  28        -0.00331977
  29         0.00000029
  30        -0.00000998
  31        -0.00137848
  32        -0.00251647
  33         0.00768162
  34        -0.20516964
  35        -0.00431582
  36         0.01315143
  37        -0.36349270
  38        -0.03285990
  39         0.08422817
  40        -0.47556198
  41        -0.01703125
  42        -0.00909322
  43        -0.00013486
  44        -0.00055914
  45         0.00095566
  46         0.00005032
  47        -0.00010968
  48        -0.00000499
  49        -0.00001810
  50         0.00045691
  51         0.00001757
  52         0.00509348
  53        -0.25325100
  54        -0.00473624
  55        -0.00306320
  56         0.00948236
  57         0.00002636
  58         0.00010360
  59        -0.00140211
  60         0.00251842
  61        -0.00767573
  62         0.20517014
  63         0.00460688
  64        -0.01416109
  65         0.36345108
  66         0.02975381
  67         0.06768118
  68         0.47841410
  69         0.01867605
  70         0.00336786
  71        -0.00016576
  72        -0.00070682
  73         0.00175539
  74        -0.00247428
  75         0.00793979
  76        -0.20516049
  77        -0.00456932
  78         0.01283079
  79        -0.36350180
  80         0.03268677
  81        -0.08423351
  82         0.47558052
  83         0.01686634
  84         0.00901310
  85        -0.00013019
  86         0.00015840
  87        -0.00325277
  88         0.01066482
  89        -0.27791442
  90         0.00039050
  91        -0.00027570
  92         0.00324540
  93        -0.01036530
  94         0.27792504
  95         0.00027919
  96        -0.00027117
  97        -0.00329284
  98         0.01049725
  99        -0.27791941
 100        -0.00015872
 101         0.00018920
 102         0.00326778
 103        -0.01031901
 104         0.27792747
Sym=    73a  
Ene=     1.8249
Spin= Alpha
Occup=    0.00000
   1         0.19042535
   2         0.85924071
   3        -0.69498212
   4         0.00451390
   5        -0.25349891
   6        -0.00959898
   7        -0.00477428
   8         0.26896308
   9         0.01018057
  10        -0.04498933
  11         0.00166913
  12         0.01196837
  13        -0.23679863
  14        -0.00849849
  15         0.18595869
  16         0.76011195
  17        -0.55609899
  18         0.01386565
  19        -0.26323578
  20        -0.00999578
  21        -0.12640118
  22         0.32358608
  23         0.01379765
  24         0.31769460
  25        -0.00326210
  26        -0.02714208
  27         0.22801515
  28        -0.18981282
  29         0.18572847
  30         0.75916473
  31        -0.55224991
  32         0.00427230
  33         0.26355670
  34         0.00981442
  35        -0.11663563
  36        -0.32480798
  37        -0.01090622
  38         0.31759494
  39         0.01184194
  40        -0.03142687
  41         0.21367365
  42         0.20583185
  43         0.19026002
  44         0.85877666
  45        -0.69097317
  46        -0.00452523
  47         0.25414483
  48         0.00962932
  49         0.00478882
  50        -0.26960497
  51        -0.01021352
  52        -0.04512092
  53         0.00152475
  54         0.01199080
  55        -0.23722166
  56        -0.00850800
  57         0.18572573
  58         0.75915022
  59        -0.55225378
  60        -0.01364361
  61         0.26321314
  62         0.01011713
  63         0.12806953
  64        -0.32038130
  65        -0.01349557
  66         0.31791004
  67        -0.00323923
  68        -0.02687524
  69         0.22796400
  70        -0.19039636
  71         0.18596144
  72         0.76012573
  73        -0.55610230
  74        -0.00449253
  75        -0.26357800
  76        -0.00992699
  77         0.11485503
  78         0.32795894
  79         0.01084658
  80         0.31741791
  81         0.01177373
  82        -0.03112972
  83         0.21378495
  84         0.20525491
  85        -0.25485834
  86         0.15530837
  87         0.11007457
  88         0.01849727
  89        -0.00074502
  90        -0.25585719
  91         0.15592095
  92         0.11117103
  93        -0.01522807
  94        -0.00188101
  95        -0.25584561
  96         0.15592036
  97        -0.11055150
  98        -0.01925394
  99         0.00056227
 100        -0.25486275
 101         0.15530501
 102        -0.11066692
 103         0.01448121
 104         0.00197867
Sym=    74a  
Ene=     1.8282
Spin= Alpha
Occup=    0.00000
   1        -0.01457920
   2        -0.13601923
   3        -0.77141209
   4        -0.00442491
   5         0.24884874
   6         0.00941823
   7         0.00859533
   8        -0.48289494
   9        -0.01826539
  10         0.11149938
  11        -0.00019257
  12        -0.01666607
  13         0.24648529
  14         0.00879094
  15         0.16408526
  16         0.68510726
  17        -2.53364622
  18         0.05961031
  19        -0.10952412
  20        -0.00474812
  21         0.51215597
  22         1.55243082
  23         0.05233908
  24        -0.01298427
  25         0.01064320
  26        -0.00114083
  27        -0.04198659
  28         0.27755001
  29        -0.16445509
  30        -0.68661336
  31         2.53473441
  32        -0.05568111
  33        -0.11214533
  34        -0.00362807
  35        -0.56681440
  36         1.53341831
  37         0.06439484
  38         0.01190434
  39         0.01054148
  40        -0.00519152
  41         0.02146228
  42         0.27942220
  43         0.01417547
  44         0.13418995
  45         0.77293351
  46        -0.00441994
  47         0.24833950
  48         0.00940281
  49         0.00857826
  50        -0.48234261
  51        -0.01824238
  52        -0.11140073
  53         0.00018588
  54         0.01664155
  55        -0.24600357
  56        -0.00877325
  57        -0.16445612
  58        -0.68661903
  59         2.53473009
  60         0.05963356
  61        -0.11005684
  62        -0.00477221
  63         0.51189007
  64         1.55305192
  65         0.05238503
  66         0.01234883
  67        -0.01063522
  68         0.00121140
  69         0.04153065
  70        -0.27717175
  71         0.16408656
  72         0.68511360
  73        -2.53364828
  74        -0.05567551
  75        -0.11162353
  76        -0.00361778
  77        -0.56701968
  78         1.53276292
  79         0.06438682
  80        -0.01253876
  81        -0.01056913
  82         0.00525195
  83        -0.02189728
  84        -0.27982905
  85         0.58551777
  86        -0.39299893
  87        -0.23163250
  88        -0.32070076
  89        -0.00937171
  90        -0.58501108
  91         0.39268797
  92         0.24265348
  93        -0.31200969
  94        -0.01459297
  95        -0.58500478
  96         0.39268692
  97        -0.23139646
  98        -0.32063605
  99        -0.00936453
 100         0.58551714
 101        -0.39300113
 102         0.24288646
 103        -0.31205606
 104        -0.01457431
Sym=    75a  
Ene=     1.8384
Spin= Alpha
Occup=    0.00000
   1         0.00000105
   2         0.00000530
   3         0.00000411
   4        -0.37408669
   5        -0.00681908
   6         0.00429770
   7        -0.47747558
   8        -0.00870394
   9         0.00544260
  10         0.00001866
  11        -0.00087620
  12         0.00024953
  13         0.00080947
  14        -0.02250337
  15         0.07585104
  16         0.39101671
  17         0.24550596
  18        -0.07748822
  19        -0.48102219
  20        -0.01716068
  21        -1.33279686
  22        -0.96936907
  23        -0.02033858
  24         0.04692031
  25         0.00083136
  26         0.00738036
  27        -0.25042962
  28        -0.08410994
  29        -0.07584524
  30        -0.39099229
  31        -0.24551727
  32         0.09454814
  33        -0.47787950
  34        -0.01912241
  35         1.36641109
  36        -0.92020035
  37        -0.05115032
  38        -0.04679946
  39        -0.00656159
  40        -0.00577481
  41         0.25583832
  42        -0.06579780
  43         0.00000571
  44         0.00002394
  45        -0.00004048
  46         0.37408733
  47         0.00681843
  48        -0.00428364
  49         0.47747467
  50         0.00869053
  51        -0.00546905
  52         0.00001403
  53        -0.00083486
  54         0.00024467
  55         0.00080524
  56        -0.02250519
  57         0.07584722
  58         0.39100081
  59         0.24556636
  60         0.07748637
  61         0.48101840
  62         0.01713079
  63         1.33278995
  64         0.96939086
  65         0.02029858
  66         0.04691388
  67         0.00082972
  68         0.00732216
  69        -0.25042963
  70        -0.08411299
  71        -0.07584108
  72        -0.39097531
  73        -0.24558085
  74        -0.09454576
  75         0.47787343
  76         0.01915599
  77        -1.36640078
  78         0.92021968
  79         0.05120973
  80        -0.04680172
  81        -0.00653239
  82        -0.00585748
  83         0.25583187
  84        -0.06580378
  85        -0.24923618
  86        -0.03428509
  87         0.18990653
  88         0.42643886
  89         0.01373486
  90         0.24922691
  91         0.03429121
  92        -0.20494869
  93         0.41924562
  94         0.01825375
  95        -0.24924572
  96        -0.03427738
  97        -0.18990890
  98        -0.42644309
  99        -0.01369624
 100         0.24923803
 101         0.03428109
 102         0.20495118
 103        -0.41924593
 104        -0.01829117
Sym=    76a  
Ene=     1.8993
Spin= Alpha
Occup=    0.00000
   1        -0.00001421
   2        -0.00006194
   3         0.00012082
   4        -0.00197965
   5         0.00347289
   6        -0.09227167
   7         0.00497032
   8        -0.01076283
   9         0.28516741
  10        -0.00783643
  11         0.00206873
  12        -0.11940920
  13        -0.00448002
  14        -0.00162960
  15        -0.00036465
  16        -0.00154404
  17         0.00209143
  18        -0.00260922
  19         0.00771874
  20        -0.20271456
  21        -0.00038536
  22         0.00283658
  23        -0.07033776
  24        -0.02000558
  25         0.17739309
  26        -0.24168017
  27        -0.00670924
  28        -0.01009845
  29        -0.00038423
  30        -0.00160805
  31         0.00262773
  32        -0.00262122
  33         0.00757586
  34        -0.20272320
  35        -0.00023043
  36         0.00270898
  37        -0.07034603
  38         0.01213722
  39         0.16892942
  40         0.24818940
  41         0.01158443
  42        -0.00283744
  43         0.00002026
  44         0.00008815
  45        -0.00014950
  46        -0.00197499
  47         0.00347961
  48        -0.09226958
  49         0.00498295
  50        -0.01077133
  51         0.28516821
  52         0.00783813
  53        -0.00206851
  54         0.11941085
  55         0.00447603
  56         0.00163388
  57         0.00038719
  58         0.00162871
  59        -0.00234424
  60        -0.00261376
  61         0.00771756
  62        -0.20271804
  63        -0.00032315
  64         0.00274666
  65        -0.07034354
  66         0.02002962
  67        -0.17739313
  68         0.24167724
  69         0.00672047
  70         0.01010507
  71         0.00037025
  72         0.00155840
  73        -0.00238988
  74        -0.00262404
  75         0.00755662
  76        -0.20272040
  77        -0.00028077
  78         0.00264032
  79        -0.07034636
  80        -0.01213706
  81        -0.16892819
  82        -0.24819041
  83        -0.01158402
  84         0.00285159
  85        -0.00100140
  86         0.00075136
  87         0.00709848
  88        -0.02069906
  89         0.54857442
  90        -0.00098670
  91         0.00079872
  92         0.00710255
  93        -0.02060348
  94         0.54858087
  95         0.00101611
  96        -0.00078065
  97         0.00709396
  98        -0.02069731
  99         0.54857749
 100         0.00095222
 101        -0.00076084
 102         0.00710892
 103        -0.02059850
 104         0.54857802
Sym=    77a  
Ene=     1.9046
Spin= Alpha
Occup=    0.00000
   1         0.00000072
   2         0.00000262
   3        -0.00001073
   4        -0.46992332
   5        -0.00856822
   6         0.00553386
   7         0.81424670
   8         0.01485945
   9        -0.00983605
  10         0.00005431
  11        -0.00203991
  12         0.00080410
  13         0.00194513
  14        -0.05376548
  15        -0.19465460
  16        -0.82190213
  17         1.22808062
  18        -0.08753487
  19         0.03081609
  20         0.00261029
  21         0.28374052
  22         0.04771687
  23        -0.00149313
  24        -0.27033557
  25        -0.01752248
  26         0.01649793
  27         0.12746800
  28        -0.26504689
  29        -0.19465259
  30        -0.82189395
  31         1.22805516
  32        -0.08638349
  33        -0.03401170
  34         0.00014193
  35         0.28524330
  36        -0.03736252
  37        -0.00476108
  38        -0.27079647
  39         0.00300868
  40         0.00980401
  41         0.10801523
  42         0.27395856
  43        -0.00000223
  44        -0.00000903
  45         0.00002158
  46        -0.46992383
  47        -0.00856698
  48         0.00553130
  49         0.81424683
  50         0.01485869
  51        -0.00981788
  52        -0.00005310
  53         0.00204112
  54        -0.00079304
  55        -0.00194383
  56         0.05376579
  57         0.19465350
  58         0.82189724
  59        -1.22808126
  60        -0.08753456
  61         0.03081424
  62         0.00261282
  63         0.28373843
  64         0.04771927
  65        -0.00151173
  66         0.27033442
  67         0.01753211
  68        -0.01649840
  69        -0.12746856
  70         0.26504709
  71         0.19465215
  72         0.82189222
  73        -1.22805436
  74        -0.08638250
  75        -0.03401181
  76         0.00015031
  77         0.28524609
  78        -0.03736740
  79        -0.00474072
  80         0.27079608
  81        -0.00298920
  82        -0.00979020
  83        -0.10801669
  84        -0.27395943
  85        -0.51924073
  86         0.40815784
  87         0.25146240
  88        -0.03156583
  89        -0.00526431
  90        -0.51923821
  91         0.40815386
  92         0.25017482
  93         0.04078279
  94        -0.00250472
  95         0.51924284
  96        -0.40815834
  97         0.25146233
  98        -0.03156544
  99        -0.00527285
 100         0.51923893
 101        -0.40815490
 102         0.25017446
 103         0.04078500
 104        -0.00253396
Sym=    78a  
Ene=     1.9507
Spin= Alpha
Occup=    0.00000
   1        -0.00001689
   2        -0.00006595
   3         0.00018501
   4        -0.00402885
   5         0.01239316
   6        -0.32924800
   7         0.00569570
   8        -0.01769400
   9         0.46851528
  10        -0.01752955
  11         0.00463440
  12        -0.26704341
  13        -0.01000564
  14        -0.00342189
  15        -0.00000623
  16        -0.00001907
  17         0.00015500
  18        -0.00272190
  19         0.00837113
  20        -0.22413298
  21        -0.00403629
  22         0.01215786
  23        -0.32423797
  24         0.00971407
  25         0.25845834
  26         0.23208491
  27         0.01184878
  28        -0.00694535
  29         0.00002223
  30         0.00007994
  31        -0.00019143
  32         0.00271767
  33        -0.00845271
  34         0.22413147
  35         0.00401387
  36        -0.01232392
  37         0.32423173
  38         0.02011437
  39        -0.26634342
  40         0.22229237
  41         0.00517632
  42         0.01271975
  43         0.00002248
  44         0.00009304
  45        -0.00022010
  46         0.00400329
  47        -0.01238008
  48         0.32924293
  49        -0.00567759
  50         0.01758060
  51        -0.46851828
  52        -0.01753736
  53         0.00463403
  54        -0.26704495
  55        -0.00999461
  56        -0.00342565
  57        -0.00001773
  58        -0.00005688
  59         0.00038902
  60         0.00271784
  61        -0.00838771
  62         0.22413364
  63         0.00385990
  64        -0.01205572
  65         0.32424362
  66         0.00970676
  67         0.25845651
  68         0.23208573
  69         0.01183387
  70        -0.00690959
  71         0.00000297
  72        -0.00000011
  73        -0.00031501
  74        -0.00271960
  75         0.00848916
  76        -0.22412894
  77        -0.00388778
  78         0.01234170
  79        -0.32423277
  80         0.02011173
  81        -0.26634636
  82         0.22229216
  83         0.00517096
  84         0.01272422
  85        -0.00008991
  86         0.00002622
  87         0.00525724
  88        -0.01633496
  89         0.43422182
  90         0.00004943
  91        -0.00001709
  92        -0.00526954
  93         0.01638821
  94        -0.43421727
  95        -0.00001765
  96         0.00002863
  97        -0.00524807
  98         0.01630715
  99        -0.43421936
 100         0.00001171
 101        -0.00002741
 102         0.00527265
 103        -0.01638125
 104         0.43422107
Sym=    79a  
Ene=     1.9620
Spin= Alpha
Occup=    0.00000
   1        -0.00005924
   2        -0.00024594
   3         0.00049468
   4        -0.00001497
   5         0.00003813
   6         0.00000198
   7         0.00003417
   8        -0.00014820
   9        -0.00000651
  10         0.00139579
  11        -0.07029862
  12        -0.00131131
  13        -0.00090098
  14         0.00263010
  15        -0.00000984
  16        -0.00004854
  17        -0.00021095
  18         0.00200849
  19        -0.00625577
  20         0.16725930
  21        -0.00024545
  22         0.00043874
  23        -0.00958994
  24         0.01827765
  25        -0.35194711
  26         0.16722148
  27         0.00204719
  28         0.01525418
  29        -0.00000371
  30        -0.00000712
  31         0.00022144
  32         0.00200119
  33        -0.00628456
  34         0.16725832
  35         0.00003539
  36         0.00047809
  37        -0.00959198
  38        -0.00452135
  39        -0.34591583
  40        -0.18023438
  41        -0.01098842
  42         0.01080724
  43         0.00001898
  44         0.00007311
  45        -0.00027787
  46        -0.00000890
  47        -0.00000093
  48        -0.00000032
  49        -0.00000451
  50        -0.00008539
  51        -0.00000264
  52         0.00138625
  53        -0.07029865
  54        -0.00131153
  55        -0.00087897
  56         0.00263227
  57         0.00000508
  58         0.00002614
  59         0.00010767
  60        -0.00201187
  61         0.00627948
  62        -0.16725886
  63        -0.00003254
  64        -0.00031021
  65         0.00959755
  66         0.01828862
  67        -0.35194436
  68         0.16721981
  69         0.00202784
  70         0.01531374
  71        -0.00001225
  72        -0.00005138
  73        -0.00014046
  74        -0.00200994
  75         0.00631638
  76        -0.16725648
  77         0.00024741
  78        -0.00035236
  79         0.00959387
  80        -0.00451797
  81        -0.34591461
  82        -0.18023609
  83        -0.01098395
  84         0.01083914
  85        -0.00003742
  86        -0.00001539
  87        -0.00656351
  88         0.02038423
  89        -0.54263066
  90         0.00007579
  91        -0.00000304
  92        -0.00656949
  93         0.02039916
  94        -0.54262944
  95         0.00009453
  96        -0.00002850
  97         0.00658114
  98        -0.02042555
  99         0.54262923
 100        -0.00002852
 101        -0.00001212
 102         0.00657755
 103        -0.02042785
 104         0.54262786
Sym=    80a  
Ene=     2.0179
Spin= Alpha
Occup=    0.00000
   1        -0.57317657
   2        -2.32993721
   3         5.66203501
   4        -0.00539135
   5         0.30307205
   6         0.01148253
   7         0.03344197
   8        -1.87992634
   9        -0.07117604
  10         0.11360704
  11         0.00386383
  12        -0.00221226
  13        -0.13605426
  14        -0.00498668
  15         0.02486636
  16        -0.01347111
  17        -4.02851803
  18        -0.01267087
  19         0.26021012
  20         0.00996517
  21        -1.97615449
  22         1.49043152
  23         0.07998985
  24         0.07321704
  25        -0.00894393
  26        -0.00698960
  27         0.13414132
  28        -0.23586031
  29        -0.02487780
  30         0.01342200
  31         4.02848694
  32         0.00339574
  33         0.26048764
  34         0.00971825
  35         1.92184638
  36         1.56152984
  37         0.03544435
  38        -0.07287462
  39        -0.00933367
  40         0.01209606
  41        -0.11685903
  42        -0.24480066
  43         0.57312809
  44         2.32972723
  45        -5.66169582
  46        -0.00539238
  47         0.30312803
  48         0.01146719
  49         0.03344280
  50        -1.87995664
  51        -0.07114443
  52        -0.11358473
  53        -0.00385915
  54         0.00223374
  55         0.13606964
  56         0.00498730
  57        -0.02487799
  58         0.01342119
  59         4.02848811
  60        -0.01265794
  61         0.26019192
  62         0.00998528
  63        -1.97614067
  64         1.49050335
  65         0.07997806
  66        -0.07323233
  67         0.00898046
  68         0.00698052
  69        -0.13417185
  70         0.23586696
  71         0.02486622
  72        -0.01347166
  73        -4.02851774
  74         0.00340819
  75         0.26050379
  76         0.00977008
  77         1.92186344
  78         1.56145817
  79         0.03547711
  80         0.07286114
  81         0.00938962
  82        -0.01207210
  83         0.11683074
  84         0.24478855
  85        -0.49266258
  86        -0.23728444
  87         0.02320728
  88        -0.28438330
  89        -0.01099160
  90         0.49269276
  91         0.23726672
  92        -0.01307687
  93        -0.28506015
  94        -0.01051250
  95         0.49269289
  96         0.23726681
  97         0.02320692
  98        -0.28439487
  99        -0.01104032
 100        -0.49266246
 101        -0.23728440
 102        -0.01307865
 103        -0.28504209
 104        -0.01064058
Sym=    81a  
Ene=     2.1065
Spin= Alpha
Occup=    0.00000
   1         0.00002104
   2         0.00009793
   3        -0.00012329
   4        -0.00069033
   5         0.00248525
   6        -0.06679371
   7        -0.00418294
   8         0.01260510
   9        -0.33429075
  10         0.01035789
  11        -0.00274258
  12         0.15797535
  13         0.00593671
  14         0.00201336
  15        -0.00001838
  16        -0.00006502
  17        -0.00002727
  18        -0.00157497
  19         0.00480906
  20        -0.12738489
  21         0.00253859
  22        -0.00762679
  23         0.20082739
  24         0.04590783
  25         0.03415418
  26         0.71512353
  27         0.02734255
  28         0.00742918
  29        -0.00007251
  30        -0.00028557
  31         0.00030375
  32         0.00153298
  33        -0.00482921
  34         0.12738417
  35        -0.00229453
  36         0.00767801
  37        -0.20082852
  38         0.04772506
  39        -0.05895097
  40         0.71338749
  41         0.02619511
  42         0.01085574
  43        -0.00000199
  44         0.00000275
  45         0.00006186
  46         0.00098380
  47        -0.00249613
  48         0.06679090
  49         0.00390433
  50        -0.01255209
  51         0.33429679
  52         0.01036230
  53        -0.00274178
  54         0.15797576
  55         0.00593814
  56         0.00203265
  57         0.00005110
  58         0.00018636
  59        -0.00028768
  60         0.00157275
  61        -0.00472146
  62         0.12738770
  63        -0.00225199
  64         0.00739357
  65        -0.20083975
  66         0.04602531
  67         0.03415459
  68         0.71511927
  69         0.02728738
  70         0.00732029
  71         0.00000711
  72         0.00000460
  73         0.00012124
  74        -0.00152976
  75         0.00476340
  76        -0.12738712
  77         0.00245505
  78        -0.00748278
  79         0.20083382
  80         0.04786268
  81        -0.05894240
  82         0.71337954
  83         0.02613775
  84         0.01095008
  85         0.00007436
  86         0.00000065
  87        -0.00360250
  88         0.01121710
  89        -0.29736876
  90        -0.00000454
  91         0.00006367
  92         0.00360523
  93        -0.01118626
  94         0.29736921
  95        -0.00003450
  96        -0.00005242
  97         0.00361365
  98        -0.01113626
  99         0.29737108
 100        -0.00005910
 101         0.00000641
 102        -0.00358888
 103         0.01112539
 104        -0.29737238
Sym=    82a  
Ene=     2.1174
Spin= Alpha
Occup=    0.00000
   1         0.00000028
   2         0.00000133
   3         0.00000165
   4         0.86454513
   5         0.01575235
   6        -0.00987694
   7        -0.70710775
   8        -0.01288718
   9         0.00813463
  10         0.00005937
  11        -0.00309709
  12         0.00084157
  13         0.00292181
  14        -0.08114405
  15        -0.28449720
  16        -1.05014162
  17         0.97144274
  18        -0.00969618
  19         0.34904815
  20         0.01326813
  21         0.82724148
  22        -0.75562433
  23        -0.03848531
  24        -0.44269214
  25         0.00100493
  26         0.02083890
  27         0.11167120
  28         0.30997967
  29        -0.28449833
  30        -1.05014475
  31         0.97146627
  32         0.00272600
  33        -0.34917159
  34        -0.01317807
  35         0.79983589
  36         0.78527865
  37         0.01991678
  38        -0.44224041
  39        -0.02223530
  40         0.02736620
  41         0.13365894
  42        -0.30047900
  43         0.00000102
  44         0.00000437
  45        -0.00001006
  46         0.86454512
  47         0.01575136
  48        -0.00988201
  49        -0.70710891
  50        -0.01288140
  51         0.00800037
  52        -0.00006447
  53         0.00309347
  54        -0.00091125
  55        -0.00292450
  56         0.08114341
  57         0.28449727
  58         1.05014157
  59        -0.97144280
  60        -0.00969551
  61         0.34904972
  62         0.01323319
  63         0.82724262
  64        -0.75562962
  65        -0.03840041
  66         0.44267897
  67        -0.00101111
  68        -0.02105260
  69        -0.11167933
  70        -0.30998225
  71         0.28449838
  72         1.05014519
  73        -0.97146358
  74         0.00272513
  75        -0.34917352
  76        -0.01314007
  77         0.79983371
  78         0.78528280
  79         0.01982359
  80         0.44222620
  81         0.02223532
  82        -0.02758189
  83        -0.13366642
  84         0.30047711
  85         0.28791897
  86         0.18788824
  87         0.03697881
  88         0.19778339
  89         0.00702987
  90         0.28791725
  91         0.18789188
  92         0.04398917
  93        -0.19630610
  94        -0.00799663
  95        -0.28791948
  96        -0.18788856
  97         0.03697794
  98         0.19778759
  99         0.00692808
 100        -0.28791787
 101        -0.18789077
 102         0.04399028
 103        -0.19631108
 104        -0.00788399
Sym=    83a  
Ene=     2.1876
Spin= Alpha
Occup=    0.00000
   1         0.16870725
   2         0.70756803
   3        -0.75820296
   4         0.00126555
   5        -0.07129352
   6        -0.00270409
   7         0.00141214
   8        -0.07928321
   9        -0.00298789
  10         0.07961478
  11         0.00271416
  12        -0.00144423
  13        -0.09845124
  14        -0.00360533
  15         0.12079423
  16         0.29537931
  17        -2.98973460
  18         0.01335954
  19         0.89267142
  20         0.03340576
  21        -0.11295097
  22         1.22073407
  23         0.04727007
  24         0.58105720
  25         0.00886899
  26        -0.05658518
  27         0.47560520
  28         0.06531354
  29        -0.12076294
  30        -0.29523633
  31         2.98958033
  32        -0.04508072
  33         0.89160662
  34         0.03409039
  35         0.06940686
  36         1.22406853
  37         0.04521682
  38        -0.58112704
  39        -0.00519157
  40         0.05561072
  41        -0.47903094
  42         0.03173124
  43        -0.16876763
  44        -0.70783143
  45         0.75852136
  46         0.00126661
  47        -0.07139714
  48        -0.00271053
  49         0.00141027
  50        -0.07917751
  51        -0.00299301
  52        -0.07958955
  53        -0.00273338
  54         0.00143739
  55         0.09839416
  56         0.00360389
  57        -0.12076386
  58        -0.29523897
  59         2.98958216
  60         0.01333846
  61         0.89266814
  62         0.03341821
  63        -0.11290148
  64         1.22074926
  65         0.04728803
  66        -0.58106097
  67        -0.00887975
  68         0.05658176
  69        -0.47553953
  70        -0.06524576
  71         0.12079302
  72         0.29537520
  73        -2.98972740
  74        -0.04510044
  75         0.89160674
  76         0.03410383
  77         0.06945605
  78         1.22405230
  79         0.04521670
  80         0.58112097
  81         0.00517620
  82        -0.05564152
  83         0.47909985
  84        -0.03179396
  85         0.25112644
  86        -0.37925151
  87        -0.10268671
  88         0.01739027
  89         0.00186980
  90        -0.25112177
  91         0.37923662
  92         0.10202387
  93         0.02102650
  94        -0.00042793
  95        -0.25112058
  96         0.37923722
  97        -0.10270537
  98         0.01729724
  99         0.00186823
 100         0.25112757
 101        -0.37925059
 102         0.10200206
 103         0.02111843
 104        -0.00039990
Sym=    84a  
Ene=     2.2127
Spin= Alpha
Occup=    0.00000
   1        -0.35864920
   2        -1.61832964
   3         1.92465651
   4        -0.00790704
   5         0.44451401
   6         0.01681102
   7         0.00771390
   8        -0.43364637
   9        -0.01641710
  10         0.15835709
  11         0.00577856
  12        -0.00157567
  13        -0.22999782
  14        -0.00840338
  15         0.12545732
  16         0.60611794
  17        -0.69248854
  18         0.11953392
  19         0.06664738
  20         0.00103948
  21        -0.23594444
  22        -0.14783154
  23        -0.00270762
  24        -0.05067451
  25         0.00712274
  26        -0.01010752
  27         0.26066707
  28         0.30129662
  29         0.12547870
  30         0.60616732
  31        -0.69316217
  32         0.12186045
  33        -0.06245648
  34        -0.00382608
  35        -0.24104921
  36         0.13883264
  37         0.00815187
  38        -0.05011297
  39        -0.01506150
  40        -0.00385464
  41         0.28178750
  42        -0.28167977
  43        -0.35860058
  44        -1.61812799
  45         1.92437742
  46         0.00790969
  47        -0.44456788
  48        -0.01681755
  49        -0.00771586
  50         0.43372992
  51         0.01642838
  52         0.15836181
  53         0.00578598
  54        -0.00156822
  55        -0.23003022
  56        -0.00840453
  57         0.12547860
  58         0.60616660
  59        -0.69315858
  60        -0.11955917
  61        -0.06685461
  62        -0.00104595
  63         0.23595522
  64         0.14752625
  65         0.00268547
  66        -0.05055231
  67         0.00715361
  68        -0.01014750
  69         0.26078598
  70         0.30129928
  71         0.12545791
  72         0.60612002
  73        -0.69249497
  74        -0.12182726
  75         0.06224905
  76         0.00381038
  77         0.24105121
  78        -0.13913752
  79        -0.00815147
  80        -0.05023784
  81        -0.01508582
  82        -0.00387168
  83         0.28166633
  84        -0.28168271
  85         0.03334573
  86        -0.07278047
  87         0.05980330
  88         0.40263902
  89         0.01440723
  90         0.03339444
  91        -0.07285505
  92         0.07407021
  93        -0.40019086
  94        -0.01593109
  95         0.03339415
  96        -0.07285464
  97        -0.05978903
  98        -0.40262879
  99        -0.01443454
 100         0.03334561
 101        -0.07278124
 102        -0.07408521
 103         0.40019836
 104         0.01595604
Sym=    85a  
Ene=     2.2487
Spin= Alpha
Occup=    0.00000
   1         0.00000013
   2         0.00000059
   3        -0.00000061
   4         0.20792458
   5         0.00378863
   6        -0.00237922
   7         0.15274983
   8         0.00278421
   9        -0.00176382
  10         0.00007012
  11        -0.00353266
  12         0.00100954
  13         0.00335241
  14        -0.09304908
  15        -0.29871723
  16        -1.05953500
  17         4.26970460
  18         0.33796812
  19        -0.60887305
  20        -0.02697965
  21         1.01407754
  22        -1.38430985
  23        -0.06432724
  24        -0.53108095
  25        -0.01486059
  26         0.04373079
  27        -0.18955656
  28        -0.16007245
  29         0.29871695
  30         1.05953364
  31        -4.26970616
  32        -0.31609344
  33        -0.62078955
  34        -0.01953357
  35        -0.96418401
  36        -1.42035479
  37        -0.04176533
  38         0.53130959
  39         0.00320611
  40        -0.04044964
  41         0.20061093
  42        -0.14681353
  43         0.00000005
  44         0.00000027
  45        -0.00000001
  46        -0.20792364
  47        -0.00378844
  48         0.00237790
  49        -0.15275266
  50        -0.00278449
  51         0.00176853
  52         0.00007066
  53        -0.00353834
  54         0.00101556
  55         0.00335260
  56        -0.09304893
  57        -0.29871702
  58        -1.05953398
  59         4.26970643
  60        -0.33796791
  61         0.60887249
  62         0.02698480
  63        -1.01407666
  64         1.38430861
  65         0.06434998
  66        -0.53107515
  67        -0.01492941
  68         0.04380064
  69        -0.18955503
  70        -0.16006928
  71         0.29871716
  72         1.05953463
  73        -4.26970417
  74         0.31609340
  75         0.62079026
  76         0.01952780
  77         0.96418451
  78         1.42035481
  79         0.04177969
  80         0.53131095
  81         0.00323900
  82        -0.04041640
  83         0.20061249
  84        -0.14681411
  85        -0.07896881
  86         0.65913676
  87         0.30298590
  88        -0.15855924
  89        -0.00961877
  90         0.07896989
  91        -0.65913706
  92        -0.29714966
  93        -0.16949373
  94        -0.00278736
  95        -0.07897001
  96         0.65913705
  97        -0.30298462
  98         0.15855722
  99         0.00968135
 100         0.07896872
 101        -0.65913675
 102         0.29714963
 103         0.16949503
 104         0.00274379
Sym=    86a  
Ene=     2.2643
Spin= Alpha
Occup=    0.00000
   1         0.00002266
   2         0.00008858
   3        -0.00019043
   4        -0.00001073
   5        -0.00000541
   6        -0.00000005
   7        -0.00001211
   8         0.00006172
   9         0.00000247
  10        -0.00083376
  11         0.04252189
  12         0.00079301
  13         0.00053324
  14        -0.00158340
  15         0.00000915
  16         0.00001706
  17        -0.00022367
  18         0.00029611
  19        -0.00079813
  20         0.02436054
  21        -0.00004194
  22         0.00006502
  23         0.00009131
  24        -0.03817661
  25         0.48150978
  26        -0.43126958
  27        -0.01037090
  28        -0.02331757
  29        -0.00000784
  30        -0.00000380
  31         0.00020137
  32        -0.00033184
  33         0.00099704
  34        -0.02435254
  35         0.00004770
  36         0.00011041
  37        -0.00008482
  38        -0.01959318
  39        -0.46623090
  40        -0.44893308
  41        -0.02261042
  42         0.01211734
  43        -0.00004725
  44        -0.00019616
  45         0.00033636
  46         0.00001664
  47        -0.00002846
  48        -0.00000125
  49         0.00000343
  50         0.00009151
  51         0.00000338
  52         0.00083338
  53        -0.04252152
  54        -0.00079262
  55        -0.00054712
  56         0.00159400
  57         0.00002771
  58         0.00012014
  59        -0.00028763
  60         0.00036128
  61        -0.00089928
  62         0.02435583
  63         0.00008120
  64        -0.00005960
  65         0.00008518
  66         0.03823788
  67        -0.48150779
  68         0.43126397
  69         0.01040730
  70         0.02335041
  71        -0.00001423
  72        -0.00005829
  73         0.00022500
  74        -0.00033417
  75         0.00094950
  76        -0.02435436
  77        -0.00007546
  78        -0.00007752
  79        -0.00009039
  80         0.01951958
  81         0.46622974
  82         0.44893819
  83         0.02259243
  84        -0.01210989
  85         0.00000790
  86        -0.00004255
  87         0.00574263
  88        -0.01787804
  89         0.47599789
  90        -0.00000835
  91         0.00003169
  92        -0.00577220
  93         0.01791473
  94        -0.47599646
  95        -0.00000961
  96        -0.00003853
  97         0.00579219
  98        -0.01793053
  99         0.47599562
 100         0.00000574
 101         0.00002807
 102        -0.00578546
 103         0.01792778
 104        -0.47599544
Sym=    87a  
Ene=     2.3338
Spin= Alpha
Occup=    0.00000
   1         0.00000015
   2         0.00000063
   3        -0.00000110
   4        -0.11708360
   5        -0.00213356
   6         0.00134248
   7         1.67473035
   8         0.03051745
   9        -0.01916942
  10         0.00014974
  11        -0.00747457
  12         0.00215125
  13         0.00708274
  14        -0.19657584
  15        -0.13288233
  16        -0.45266796
  17         1.87876301
  18         0.12001672
  19         0.53905711
  20         0.01881826
  21         0.47051244
  22         0.31491337
  23         0.00617563
  24        -0.28339230
  25        -0.00216213
  26         0.03409347
  27        -0.40377370
  28        -0.02949151
  29        -0.13288172
  30        -0.45266557
  31         1.87876467
  32         0.13911211
  33        -0.53433596
  34        -0.02178479
  35         0.48140779
  36        -0.29756813
  37        -0.01704671
  38        -0.28341373
  39        -0.00102104
  40         0.03378481
  41        -0.40486382
  42         0.00078749
  43        -0.00000019
  44        -0.00000082
  45         0.00000157
  46        -0.11708283
  47        -0.00213315
  48         0.00134985
  49         1.67473357
  50         0.03051672
  51        -0.01916718
  52        -0.00014947
  53         0.00747452
  54        -0.00214850
  55        -0.00708250
  56         0.19657631
  57         0.13288163
  58         0.45266526
  59        -1.87876301
  60         0.12001775
  61         0.53905797
  62         0.01883275
  63         0.47051268
  64         0.31491530
  65         0.00615774
  66         0.28339431
  67         0.00216082
  68        -0.03405872
  69         0.40377418
  70         0.02949137
  71         0.13288219
  72         0.45266728
  73        -1.87876417
  74         0.13911124
  75        -0.53433428
  76        -0.02179172
  77         0.48140738
  78        -0.29756810
  79        -0.01702583
  80         0.28341686
  81         0.00101543
  82        -0.03374183
  83         0.40486570
  84        -0.00078720
  85        -0.25285766
  86         0.05732263
  87        -0.30803824
  88        -0.36099578
  89        -0.00986251
  90        -0.25285811
  91         0.05732233
  92        -0.32067828
  93         0.34953915
  94         0.01704440
  95         0.25285805
  96        -0.05732225
  97        -0.30803844
  98        -0.36099559
  99        -0.00985205
 100         0.25285795
 101        -0.05732278
 102        -0.32067803
 103         0.34953966
 104         0.01703820
Sym=    88a  
Ene=     2.4444
Spin= Alpha
Occup=    0.00000
   1         0.00000708
   2         0.00003210
   3        -0.00003163
   4        -0.00035298
   5         0.00098776
   6        -0.02650516
   7         0.00507826
   8        -0.01565154
   9         0.41575049
  10        -0.04882364
  11         0.01290353
  12        -0.74352370
  13        -0.02785575
  14        -0.00952526
  15         0.00000074
  16        -0.00000461
  17        -0.00007830
  18        -0.00138829
  19         0.00430619
  20        -0.11318060
  21        -0.00072914
  22         0.00225863
  23        -0.05852336
  24         0.00294222
  25        -0.33793489
  26        -0.06380945
  27        -0.00649515
  28         0.01190815
  29        -0.00000616
  30        -0.00000349
  31         0.00026087
  32        -0.00138898
  33         0.00423811
  34        -0.11319276
  35        -0.00062992
  36         0.00222687
  37        -0.05852297
  38         0.01043992
  39        -0.33993353
  40         0.05116730
  41        -0.00220876
  42         0.01340483
  43        -0.00000694
  44        -0.00002890
  45         0.00004210
  46        -0.00030130
  47         0.00099386
  48        -0.02648876
  49         0.00516011
  50        -0.01564761
  51         0.41574124
  52         0.04882073
  53        -0.01290304
  54         0.74352345
  55         0.02786087
  56         0.00954270
  57        -0.00000404
  58        -0.00003424
  59        -0.00013552
  60        -0.00138891
  61         0.00428412
  62        -0.11319109
  63        -0.00060843
  64         0.00225305
  65        -0.05852223
  66        -0.00289487
  67         0.33793763
  68         0.06380493
  69         0.00651683
  70        -0.01194490
  71         0.00000726
  72         0.00003253
  73        -0.00003551
  74        -0.00135239
  75         0.00421991
  76        -0.11318421
  77        -0.00076073
  78         0.00221762
  79        -0.05852453
  80        -0.01048657
  81         0.33992871
  82        -0.05116411
  83         0.00218202
  84        -0.01342666
  85        -0.00002912
  86        -0.00000527
  87        -0.00148914
  88         0.00451659
  89        -0.12067591
  90        -0.00003547
  91         0.00000973
  92        -0.00149951
  93         0.00454343
  94        -0.12067711
  95         0.00002948
  96        -0.00000203
  97        -0.00150950
  98         0.00452660
  99        -0.12067762
 100         0.00001561
 101        -0.00000174
 102        -0.00145920
 103         0.00455314
 104        -0.12067494
Sym=    89a  
Ene=     2.4567
Spin= Alpha
Occup=    0.00000
   1         0.00000008
   2         0.00000028
   3        -0.00000104
   4         0.33085811
   5         0.00602851
   6        -0.00377515
   7         1.65787284
   8         0.03020874
   9        -0.01892425
  10         0.00012101
  11        -0.00625769
  12         0.00176277
  13         0.00602850
  14        -0.16735535
  15         0.14881790
  16         0.89804926
  17         1.87472037
  18        -0.12718906
  19        -0.36703583
  20        -0.01223212
  21         1.55030624
  22         0.59950461
  23         0.00378111
  24        -0.54458079
  25         0.00472304
  26         0.05132404
  27        -0.50493174
  28         0.26667362
  29        -0.14881880
  30        -0.89805299
  31        -1.87472217
  32         0.14016127
  33        -0.36216391
  34        -0.01526736
  35        -1.57062483
  36         0.54263734
  37         0.03943286
  38         0.54415031
  39         0.01694544
  40        -0.05748558
  41         0.48446252
  42         0.30149652
  43        -0.00000016
  44        -0.00000077
  45         0.00000073
  46        -0.33085942
  47        -0.00602785
  48         0.00377161
  49        -1.65787591
  50        -0.03021136
  51         0.01898250
  52         0.00012507
  53        -0.00626212
  54         0.00182217
  55         0.00603074
  56        -0.16735510
  57         0.14881877
  58         0.89805283
  59         1.87472267
  60         0.12718810
  61         0.36703446
  62         0.01223905
  63        -1.55030683
  64        -0.59950420
  65        -0.00379009
  66        -0.54457976
  67         0.00474301
  68         0.05134949
  69        -0.50493032
  70         0.26667417
  71        -0.14881798
  72        -0.89804963
  73        -1.87472039
  74        -0.14016258
  75         0.36216472
  76         0.01527935
  77         1.57062360
  78        -0.54263657
  79        -0.03943853
  80         0.54414979
  81         0.01697327
  82        -0.05748507
  83         0.48446362
  84         0.30149448
  85        -0.13555326
  86         0.05112892
  87        -0.42567961
  88        -0.01023293
  89         0.00475388
  90         0.13555397
  91        -0.05112895
  92         0.42576785
  93         0.00528203
  94        -0.00496831
  95        -0.13555365
  96         0.05112885
  97         0.42567984
  98         0.01023264
  99        -0.00475661
 100         0.13555401
 101        -0.05112903
 102        -0.42576796
 103        -0.00528139
 104         0.00495916
Sym=    90a  
Ene=     2.5087
Spin= Alpha
Occup=    0.00000
   1         0.15625707
   2         0.54657378
   3        -1.65788205
   4        -0.00220923
   5         0.12418642
   6         0.00470108
   7        -0.01096206
   8         0.61617777
   9         0.02331377
  10         0.47868065
  11         0.00835401
  12        -0.03689904
  13         0.14826393
  14         0.00498528
  15        -0.02382017
  16        -0.13686742
  17         0.05726351
  18         0.84224052
  19        -0.12169499
  20        -0.01478215
  21         0.03964360
  22        -0.11725192
  23        -0.00488529
  24        -0.01081589
  25         0.00858176
  26        -0.00551559
  27         0.08056365
  28         0.26070558
  29        -0.02382246
  30        -0.13687787
  31         0.05732049
  32         0.83741337
  33         0.15231110
  34        -0.00442506
  35         0.03545091
  36         0.11865080
  37         0.00402976
  38        -0.01042482
  39        -0.01105749
  40         0.00004491
  41         0.09911601
  42        -0.25422172
  43         0.15626665
  44         0.54660880
  45        -1.65797059
  46         0.00220938
  47        -0.12418513
  48        -0.00470244
  49         0.01096270
  50        -0.61622137
  51        -0.02331070
  52         0.47870621
  53         0.00835373
  54        -0.03689284
  55         0.14827233
  56         0.00498570
  57        -0.02382269
  58        -0.13687906
  59         0.05732025
  60        -0.84228800
  61         0.12170373
  62         0.01478404
  63        -0.03964719
  64         0.11728329
  65         0.00488493
  66        -0.01081145
  67         0.00856148
  68        -0.00549684
  69         0.08056685
  70         0.26071461
  71        -0.02381998
  72        -0.13686645
  73         0.05726401
  74        -0.83736613
  75        -0.15230086
  76         0.00443019
  77        -0.03544849
  78        -0.11861919
  79        -0.00403105
  80        -0.01042683
  81        -0.01101443
  82         0.00007013
  83         0.09911402
  84        -0.25421515
  85         0.75584986
  86        -0.04634936
  87         0.54620996
  88        -0.19981641
  89        -0.01410906
  90         0.75588416
  91        -0.04634592
  92         0.53877756
  93         0.21959641
  94         0.00174247
  95         0.75588438
  96        -0.04634588
  97        -0.54623919
  98         0.19982644
  99         0.01412368
 100         0.75584967
 101        -0.04634942
 102        -0.53874871
 103        -0.21958446
 104        -0.00175413
Sym=    91a  
Ene=     2.5165
Spin= Alpha
Occup=    0.00000
   1        -0.22507317
   2        -0.87076044
   3         1.98903528
   4        -0.00052220
   5         0.02935798
   6         0.00111184
   7         0.01485952
   8        -0.83530179
   9        -0.03161386
  10        -0.44055606
  11        -0.00757732
  12         0.03471811
  13        -0.15620635
  14        -0.00529576
  15         0.05673105
  16         0.27601591
  17        -1.08774838
  18        -0.84758024
  19         0.13250302
  20         0.01523241
  21        -0.17928867
  22         0.55718795
  23         0.02312540
  24        -0.07820423
  25        -0.00786786
  26         0.00995993
  27        -0.06892704
  28        -0.18829696
  29        -0.05673060
  30        -0.27601263
  31         1.08774893
  32         0.84227075
  33         0.16328580
  34        -0.00405210
  35         0.15935418
  36         0.56335545
  37         0.01926144
  38         0.07847932
  39        -0.00627558
  40        -0.00602257
  41         0.08228979
  42        -0.18294887
  43         0.22506427
  44         0.87072884
  45        -1.98894120
  46        -0.00052269
  47         0.02937814
  48         0.00111171
  49         0.01485888
  50        -0.83528225
  51        -0.03161984
  52         0.44053205
  53         0.00753919
  54        -0.03472691
  55         0.15619882
  56         0.00529680
  57        -0.05673050
  58        -0.27601211
  59         1.08774879
  60        -0.84753238
  61         0.13249570
  62         0.01523998
  63        -0.17928776
  64         0.55718475
  65         0.02313258
  66         0.07820377
  67         0.00784803
  68        -0.00997081
  69         0.06891871
  70         0.18828148
  71         0.05673110
  72         0.27601606
  73        -1.08774904
  74         0.84231828
  75         0.16329460
  76        -0.00405111
  77         0.15935536
  78         0.56335814
  79         0.01926491
  80        -0.07847879
  81         0.00625588
  82         0.00602363
  83        -0.08229866
  84         0.18296519
  85        -0.69732821
  86        -0.05173856
  87        -0.55305220
  88         0.18214893
  89         0.01355147
  90         0.69728664
  91         0.05174102
  92         0.54618506
  93         0.20216880
  94         0.00099630
  95         0.69728640
  96         0.05174105
  97        -0.55302144
  98         0.18213977
  99         0.01354711
 100        -0.69732837
 101        -0.05173857
 102         0.54621521
 103         0.20217980
 104         0.00098061
Sym=    92a  
Ene=     2.5471
Spin= Alpha
Occup=    0.00000
   1         0.00000758
   2         0.00001456
   3        -0.00014360
   4        -0.00003904
   5         0.00002902
   6         0.00000139
   7        -0.00026038
   8         0.00005534
   9         0.00000531
  10        -0.01575588
  11         0.79922331
  12         0.01490432
  13         0.01023044
  14        -0.02987976
  15        -0.00002637
  16        -0.00015195
  17        -0.00028961
  18         0.00287176
  19        -0.00853032
  20         0.22884927
  21        -0.00051705
  22         0.00081976
  23        -0.02507671
  24         0.01083129
  25         0.19931057
  26         0.22884463
  27         0.01113437
  28        -0.00470946
  29         0.00002427
  30         0.00013952
  31         0.00028534
  32         0.00288034
  33        -0.00852315
  34         0.22884946
  35        -0.00007572
  36         0.00089439
  37        -0.02507974
  38        -0.01889709
  39         0.20711834
  40        -0.22126253
  41        -0.00590346
  42        -0.01055214
  43         0.00002606
  44         0.00009485
  45        -0.00024385
  46         0.00004115
  47        -0.00000683
  48        -0.00000036
  49         0.00026013
  50        -0.00009837
  51        -0.00000696
  52        -0.01575704
  53         0.79922332
  54         0.01490366
  55         0.01025182
  56        -0.02988172
  57        -0.00002479
  58        -0.00015031
  59        -0.00024997
  60        -0.00291482
  61         0.00858574
  62        -0.22884710
  63         0.00049756
  64        -0.00079939
  65         0.02507826
  66         0.01083773
  67         0.19931093
  68         0.22884590
  69         0.01111103
  70        -0.00472497
  71         0.00002624
  72         0.00014942
  73         0.00022891
  74        -0.00284454
  75         0.00856566
  76        -0.22884805
  77         0.00010483
  78        -0.00085670
  79         0.02508029
  80        -0.01889004
  81         0.20711724
  82        -0.22126320
  83        -0.00587829
  84        -0.01056448
  85         0.00011130
  86        -0.00002041
  87        -0.00053763
  88         0.00204411
  89        -0.05420230
  90         0.00007496
  91         0.00001366
  92        -0.00063760
  93         0.00206768
  94        -0.05420018
  95         0.00015959
  96        -0.00000932
  97         0.00050622
  98        -0.00201658
  99         0.05420368
 100         0.00003395
 101        -0.00000353
 102         0.00066500
 103        -0.00204672
 104         0.05420066
Sym=    93a  
Ene=     2.6885
Spin= Alpha
Occup=    0.00000
   1        -0.00000424
   2        -0.00001462
   3         0.00004132
   4        -0.00065412
   5         0.00189178
   6        -0.05036418
   7        -0.00487342
   8         0.01556421
   9        -0.41398054
  10         0.04538226
  11        -0.01200207
  12         0.69148418
  13         0.02590813
  14         0.00882919
  15         0.00002897
  16         0.00011815
  17        -0.00019650
  18         0.00126151
  19        -0.00398227
  20         0.10579191
  21         0.00205475
  22        -0.00620309
  23         0.16865465
  24        -0.01526798
  25         0.53134792
  26        -0.06321083
  27         0.00401053
  28        -0.02077678
  29        -0.00001622
  30        -0.00004733
  31         0.00021546
  32        -0.00138182
  33         0.00391954
  34        -0.10579507
  35        -0.00202881
  36         0.00650589
  37        -0.16864303
  38         0.00564817
  39        -0.52881029
  40        -0.08298764
  41        -0.00945263
  42         0.01893072
  43        -0.00000654
  44        -0.00003025
  45         0.00000942
  46         0.00064853
  47        -0.00190692
  48         0.05037045
  49         0.00487735
  50        -0.01558234
  51         0.41397697
  52         0.04540614
  53        -0.01200093
  54         0.69148026
  55         0.02591209
  56         0.00884618
  57         0.00001115
  58         0.00003362
  59        -0.00014114
  60        -0.00136782
  61         0.00402198
  62        -0.10579141
  63        -0.00203778
  64         0.00622113
  65        -0.16865363
  66        -0.01525269
  67         0.53135016
  68        -0.06321199
  69         0.00398453
  70        -0.02072692
  71        -0.00003295
  72        -0.00013898
  73         0.00014252
  74         0.00129135
  75        -0.00398374
  76         0.10579156
  77         0.00205112
  78        -0.00646815
  79         0.16864472
  80         0.00569094
  81        -0.52881056
  82        -0.08298757
  83        -0.00950218
  84         0.01889180
  85        -0.00003203
  86        -0.00000573
  87         0.00278528
  88        -0.00877081
  89         0.23301411
  90        -0.00013226
  91         0.00004871
  92        -0.00287191
  93         0.00869847
  94        -0.23301588
  95         0.00010862
  96        -0.00003892
  97        -0.00286459
  98         0.00881685
  99        -0.23301152
 100         0.00002856
 101         0.00001022
 102         0.00279604
 103        -0.00876497
 104         0.23301419
Sym=    94a  
Ene=     2.7791
Spin= Alpha
Occup=    0.00000
   1        -0.00000003
   2        -0.00000021
   3        -0.00000028
   4         0.15918079
   5         0.00290070
   6        -0.00182214
   7        -0.12591400
   8        -0.00229329
   9         0.00141990
  10        -0.00006878
  11         0.00358412
  12        -0.00098450
  13        -0.00338404
  14         0.09397231
  15        -0.18596156
  16        -0.88812637
  17         0.04306422
  18         0.76529683
  19        -0.35698477
  20        -0.02266901
  21         0.02054016
  22        -0.05010472
  23        -0.00212737
  24         0.21582252
  25         0.02301083
  26        -0.00654821
  27        -0.32435478
  28         0.38650321
  29        -0.18596306
  30        -0.88813182
  31         0.04307665
  32         0.75210171
  33         0.38463185
  34         0.00538415
  35         0.01874489
  36         0.05082771
  37         0.00167160
  38         0.21641704
  39        -0.00734271
  40         0.00197296
  41        -0.29569295
  42        -0.40916035
  43         0.00000003
  44         0.00000027
  45         0.00000037
  46         0.15918339
  47         0.00289988
  48        -0.00181107
  49        -0.12591902
  50        -0.00229468
  51         0.00146878
  52         0.00007445
  53        -0.00358280
  54         0.00107422
  55         0.00338750
  56        -0.09397216
  57         0.18596306
  58         0.88813166
  59        -0.04307913
  60         0.76529451
  61        -0.35698398
  62        -0.02268024
  63         0.02054068
  64        -0.05011197
  65        -0.00214728
  66        -0.21582278
  67        -0.02293675
  68         0.00653870
  69         0.32435349
  70        -0.38650630
  71         0.18596155
  72         0.88812643
  73        -0.04306207
  74         0.75210363
  75         0.38463221
  76         0.00537780
  77         0.01874478
  78         0.05081913
  79         0.00169204
  80        -0.21641838
  81         0.00725707
  82        -0.00199381
  83         0.29569317
  84         0.40916316
  85         1.38890545
  86        -0.31322849
  87         0.64755233
  88        -0.46300806
  89        -0.02522172
  90         1.38890294
  91        -0.31322682
  92         0.63066410
  93         0.48629543
  94         0.01067457
  95        -1.38890246
  96         0.31322664
  97         0.64755117
  98        -0.46300545
  99        -0.02524696
 100        -1.38890554
 101         0.31322862
 102         0.63066474
 103         0.48629672
 104         0.01068485
Sym=    95a  
Ene=     2.8342
Spin= Alpha
Occup=    0.00000
   1         0.00000032
   2         0.00000151
   3         0.00000006
   4         0.69952598
   5         0.01274571
   6        -0.00800017
   7        -1.93218603
   8        -0.03520625
   9         0.02204090
  10        -0.00024810
  11         0.01273154
  12        -0.00357841
  13        -0.01213877
  14         0.33699165
  15        -0.31697943
  16        -1.19876131
  17         2.61869627
  18        -0.59538577
  19         0.09658260
  20         0.01082908
  21        -0.19802186
  22        -1.94180323
  23        -0.07061525
  24        -0.28603621
  25        -0.00334278
  26         0.00061696
  27         0.41229429
  28         0.20329781
  29         0.31697920
  30         1.19875960
  31        -2.61869393
  32         0.59156658
  33         0.11821061
  34        -0.00271674
  35         0.26695861
  36        -1.93332809
  37        -0.07599292
  38         0.28574964
  39         0.01763364
  40        -0.00474658
  41        -0.42584389
  42         0.17267780
  43        -0.00000012
  44        -0.00000116
  45        -0.00000222
  46        -0.69952593
  47        -0.01274588
  48         0.00801432
  49         1.93218752
  50         0.03520290
  51        -0.02205853
  52        -0.00024863
  53         0.01291608
  54        -0.00355567
  55        -0.01213573
  56         0.33698384
  57        -0.31697909
  58        -1.19875824
  59         2.61870483
  60         0.59538800
  61        -0.09658506
  62        -0.01084067
  63         0.19802268
  64         1.94180699
  65         0.07064655
  66        -0.28603333
  67        -0.00325952
  68         0.00073377
  69         0.41230252
  70         0.20329629
  71         0.31697954
  72         1.19876134
  73        -2.61870481
  74        -0.59156433
  75        -0.11821011
  76         0.00272141
  77        -0.26695764
  78         1.93333151
  79         0.07599641
  80         0.28575818
  81         0.01757272
  82        -0.00464248
  83        -0.42583974
  84         0.17268353
  85        -0.51155419
  86         0.31670374
  87        -0.03327584
  88         0.46942643
  89         0.01805843
  90         0.51155775
  91        -0.31670507
  92         0.01655925
  93         0.47033615
  94         0.01749593
  95        -0.51156165
  96         0.31670611
  97         0.03327840
  98        -0.46942960
  99        -0.01806525
 100         0.51155533
 101        -0.31670426
 102        -0.01655780
 103        -0.47033598
 104        -0.01748712
Sym=    96a  
Ene=     2.8508
Spin= Alpha
Occup=    0.00000
   1        -0.00026132
   2        -0.00156116
   3        -0.00237401
   4        -0.00010560
   5         0.00118220
   6         0.00004576
   7         0.00023126
   8         0.00150814
   9         0.00005398
  10         0.01692725
  11        -0.80055867
  12        -0.01500237
  13        -0.01029398
  14         0.02990679
  15        -0.00014006
  16        -0.00005004
  17         0.00679575
  18        -0.00016777
  19         0.00213856
  20        -0.02355544
  21         0.00048474
  22        -0.00372236
  23         0.02727558
  24        -0.02622064
  25        -0.32172564
  26        -0.48864671
  27        -0.02108382
  28         0.00731246
  29         0.00010810
  30        -0.00009059
  31        -0.00674417
  32         0.00017953
  33         0.00035641
  34         0.02364977
  35        -0.00039615
  36        -0.00165066
  37        -0.02747906
  38        -0.03710651
  39         0.33855685
  40        -0.47637522
  41        -0.01520412
  42        -0.01752014
  43         0.00023802
  44         0.00147121
  45         0.00255799
  46         0.00004536
  47         0.00118893
  48         0.00004450
  49        -0.00022816
  50         0.00155680
  51         0.00006127
  52        -0.01697417
  53         0.80055509
  54         0.01500776
  55         0.01026269
  56        -0.02999746
  57         0.00019057
  58         0.00022306
  59        -0.00740416
  60        -0.00034614
  61         0.00217496
  62        -0.02355284
  63         0.00043612
  64        -0.00416598
  65         0.02725982
  66         0.02631179
  67         0.32172941
  68         0.48864575
  69         0.02095813
  70        -0.00731965
  71        -0.00020058
  72        -0.00027587
  73         0.00732150
  74         0.00028751
  75         0.00035426
  76         0.02364786
  77        -0.00029133
  78        -0.00211130
  79        -0.02749739
  80         0.03705976
  81        -0.33856052
  82         0.47637678
  83         0.01526115
  84         0.01745348
  85        -0.00157223
  86         0.00039429
  87        -0.00041167
  88         0.00180376
  89        -0.01619231
  90         0.00169594
  91        -0.00043160
  92         0.00041770
  93         0.00063893
  94         0.01628418
  95         0.00180800
  96        -0.00050223
  97        -0.00046980
  98         0.00194191
  99        -0.01618646
 100        -0.00172157
 101         0.00047242
 102         0.00037716
 103         0.00071926
 104         0.01628766
Sym=    97a  
Ene=     2.8570
Spin= Alpha
Occup=    0.00000
   1         0.09089587
   2         0.57156937
   3         1.05969849
   4         0.00834163
   5        -0.46898082
   6        -0.01775443
   7         0.01140735
   8        -0.64105272
   9        -0.02425328
  10        -0.44799096
  11        -0.01155343
  12         0.02861950
  13         0.01544311
  14         0.00096705
  15         0.06249062
  16         0.03633684
  17        -2.88770866
  18        -0.01265404
  19        -0.50147672
  20        -0.01875928
  21        -0.06162664
  22         1.19078016
  23         0.04560002
  24         0.45679176
  25        -0.00205942
  26        -0.00620935
  27        -0.51305068
  28        -0.45277796
  29        -0.06248851
  30        -0.03632748
  31         2.88769597
  32         0.03048685
  33        -0.50068984
  34        -0.01916530
  35         0.01922944
  36         1.19225390
  37         0.04454468
  38        -0.45629865
  39        -0.03087847
  40         0.01311003
  41         0.54419549
  42        -0.41407306
  43        -0.09089737
  44        -0.57157436
  45        -1.05969211
  46         0.00834479
  47        -0.46901507
  48        -0.01776378
  49         0.01139986
  50        -0.64101640
  51        -0.02426319
  52         0.44798091
  53         0.01159107
  54        -0.02864334
  55        -0.01544081
  56        -0.00096981
  57        -0.06248736
  58        -0.03632330
  59         2.88768621
  60        -0.01266054
  61        -0.50147221
  62        -0.01876224
  63        -0.06162220
  64         1.19076821
  65         0.04561849
  66        -0.45678814
  67         0.00205846
  68         0.00621762
  69         0.51305962
  70         0.45277723
  71         0.06248953
  72         0.03633279
  73        -2.88769917
  74         0.03048469
  75        -0.50069350
  76        -0.01916274
  77         0.01923507
  78         1.19225122
  79         0.04455395
  80         0.45629838
  81         0.03091033
  82        -0.01311725
  83        -0.54418372
  84         0.41407215
  85         0.68799825
  86        -0.18857808
  87         0.09979453
  88        -0.51243750
  89        -0.02051661
  90        -0.68799616
  91         0.18857961
  92        -0.08150019
  93        -0.51574702
  94        -0.01838630
  95        -0.68799496
  96         0.18857859
  97         0.09979109
  98        -0.51244018
  99        -0.02051083
 100         0.68799541
 101        -0.18857672
 102        -0.08150347
 103        -0.51574145
 104        -0.01838240
Sym=    98a  
Ene=     2.8787
Spin= Alpha
Occup=    0.00000
   1        -0.37175280
   2        -1.43040951
   3         2.81734359
   4        -0.00100899
   5         0.05674704
   6         0.00214777
   7         0.01607093
   8        -0.90349050
   9        -0.03419480
  10        -0.54661408
  11        -0.00921457
  12         0.04354145
  13        -0.20629979
  14        -0.00702231
  15        -0.20070508
  16        -0.96575673
  17        -0.40113562
  18         0.22309807
  19        -0.46827417
  20        -0.02029965
  21        -0.22086582
  22         0.07227628
  23         0.00538886
  24         0.26847748
  25         0.02079684
  26        -0.00942149
  27        -0.31180761
  28         0.30245115
  29        -0.20070745
  30        -0.96576962
  31        -0.40116490
  32         0.20629945
  33         0.47609651
  34         0.01544569
  35        -0.21815148
  36        -0.08029162
  37        -0.00037849
  38         0.26895377
  39        -0.00309651
  40        -0.00271136
  41        -0.28921987
  42        -0.32450514
  43        -0.37174998
  44        -1.43039145
  45         2.81733710
  46         0.00100889
  47        -0.05675960
  48        -0.00214843
  49        -0.01607133
  50         0.90351310
  51         0.03420029
  52        -0.54662020
  53        -0.00929046
  54         0.04354793
  55        -0.20629853
  56        -0.00701950
  57        -0.20070792
  58        -0.96577117
  59        -0.40116035
  60        -0.22309852
  61         0.46827401
  62         0.02029723
  63         0.22086588
  64        -0.07228915
  65        -0.00539329
  66         0.26848285
  67         0.02075816
  68        -0.00945705
  69        -0.31180421
  70         0.30245498
  71        -0.20070459
  72        -0.96575498
  73        -0.40114027
  74        -0.20629960
  75        -0.47609730
  76        -0.01543019
  77         0.21815192
  78         0.08027851
  79         0.00038144
  80         0.26894409
  81        -0.00304841
  82        -0.00273976
  83        -0.28922568
  84        -0.32450522
  85         1.09244239
  86        -0.34576588
  87         0.50127080
  88        -0.30885226
  89        -0.01766571
  90         1.09245600
  91        -0.34577098
  92         0.48996699
  93         0.32691521
  94         0.00638536
  95         1.09245529
  96        -0.34577043
  97        -0.50127680
  98         0.30885414
  99         0.01767000
 100         1.09244376
 101        -0.34576657
 102        -0.48996124
 103        -0.32691341
 104        -0.00637682
Sym=    99a  
Ene=     3.1247
Spin= Alpha
Occup=    0.00000
   1        -0.00000057
   2        -0.00000241
   3         0.00000290
   4         0.19638503
   5         0.00357900
   6        -0.00224207
   7         1.10923640
   8         0.02021009
   9        -0.01267680
  10         0.00072216
  11        -0.03666994
  12         0.01035016
  13         0.03470188
  14        -0.96341339
  15         0.22479689
  16         0.99948896
  17        -0.01172134
  18         0.71320852
  19         0.14960351
  20        -0.00299915
  21        -0.12141240
  22         0.32448016
  23         0.01368415
  24        -0.01321520
  25         0.00613307
  26        -0.01276885
  27         0.27811814
  28         0.25951108
  29         0.22479900
  30         0.99949659
  31        -0.01173020
  32         0.71806991
  33        -0.12352028
  34        -0.01335439
  35        -0.10979457
  36        -0.32869565
  37        -0.01104583
  38        -0.01284052
  39        -0.01285061
  40        -0.00742018
  41         0.29606413
  42        -0.23880753
  43         0.00000165
  44         0.00000575
  45        -0.00001532
  46         0.19638505
  47         0.00358118
  48        -0.00224884
  49         1.10923358
  50         0.02020706
  51        -0.01267938
  52        -0.00071991
  53         0.03667527
  54        -0.01035470
  55        -0.03470856
  56         0.96341023
  57        -0.22479854
  58        -0.99949314
  59         0.01174313
  60         0.71320826
  61         0.14959648
  62        -0.00300178
  63        -0.12141834
  64         0.32448543
  65         0.01368218
  66         0.01321065
  67        -0.00612992
  68         0.01276615
  69        -0.27812013
  70        -0.25951064
  71        -0.22479857
  72        -0.99949594
  73         0.01171882
  74         0.71806435
  75        -0.12351938
  76        -0.01334982
  77        -0.10978975
  78        -0.32869222
  79        -0.01104160
  80         0.01284218
  81         0.01284389
  82         0.00741640
  83        -0.29607020
  84         0.23880440
  85         0.07872895
  86        -0.00199156
  87         0.14807028
  88         0.04599766
  89        -0.00005575
  90         0.07873240
  91        -0.00199318
  92         0.14961044
  93        -0.04057130
  94        -0.00333767
  95        -0.07873390
  96         0.00199387
  97         0.14807348
  98         0.04599792
  99        -0.00005627
 100        -0.07872378
 101         0.00198857
 102         0.14960845
 103        -0.04057575
 104        -0.00333844
Sym=   100a  
Ene=     3.1495
Spin= Alpha
Occup=    0.00000
   1        -0.17313136
   2        -0.59024425
   3         1.78543350
   4        -0.00130964
   5         0.07369349
   6         0.00278716
   7         0.00444479
   8        -0.24958110
   9        -0.00944171
  10        -0.32282672
  11        -0.01538108
  12        -0.00945727
  13         0.80090842
  14         0.02908765
  15         0.05755388
  16         0.14484307
  17        -0.62113494
  18        -0.36437769
  19        -0.51658239
  20        -0.01501786
  21        -0.05969040
  22         0.08667338
  23         0.00397599
  24         0.15674261
  25        -0.00944398
  26        -0.02434194
  27         0.43781353
  28        -0.19768284
  29         0.05748428
  30         0.14448124
  31        -0.62172602
  32        -0.38255791
  33         0.50299864
  34         0.02356037
  35        -0.05682797
  36        -0.08893320
  37        -0.00264993
  38         0.15655693
  39         0.00678899
  40        -0.02894132
  41         0.42256941
  42         0.22830104
  43        -0.17329596
  44        -0.59085673
  45         1.78682364
  46         0.00131191
  47        -0.07378105
  48        -0.00279133
  49        -0.00444175
  50         0.24997796
  51         0.00945805
  52        -0.32299477
  53        -0.01537005
  54        -0.00945290
  55         0.80100378
  56         0.02909891
  57         0.05748200
  58         0.14447240
  59        -0.62171869
  60         0.36442607
  61         0.51660835
  62         0.01502649
  63         0.05995231
  64        -0.08679903
  65        -0.00398890
  66         0.15687702
  67        -0.00942826
  68        -0.02433604
  69         0.43791036
  70        -0.19754423
  71         0.05755228
  72         0.14483503
  73        -0.62114232
  74         0.38252015
  75        -0.50297587
  76        -0.02356150
  77         0.05656886
  78         0.08879181
  79         0.00265227
  80         0.15642560
  81         0.00677685
  82        -0.02890472
  83         0.42245951
  84         0.22843738
  85        -0.18900810
  86         0.11913291
  87         0.07315035
  88         0.25940150
  89         0.00887381
  90        -0.18874876
  91         0.11900015
  92         0.08249406
  93        -0.25656537
  94        -0.01065910
  95        -0.18875307
  96         0.11900186
  97        -0.07331322
  98        -0.25940584
  99        -0.00887116
 100        -0.18900458
 101         0.11913116
 102        -0.08232884
 103         0.25656639
 104         0.01065363
Sym=   101a  
Ene=     3.1708
Spin= Alpha
Occup=    0.00000
   1         0.55793350
   2         2.13531742
   3        -4.56071226
   4         0.00452061
   5        -0.25407267
   6        -0.00961785
   7        -0.02112619
   8         1.18780531
   9         0.04495611
  10         0.49475651
  11         0.01352851
  12        -0.02104115
  13        -0.29509420
  14        -0.01100379
  15         0.21244052
  16         1.08676506
  17         1.76632510
  18         0.11662861
  19         0.06647644
  20         0.00108853
  21         0.85697381
  22        -0.35203160
  23        -0.02361210
  24        -0.39251886
  25        -0.02156253
  26         0.04252437
  27        -0.30415706
  28        -0.45209022
  29        -0.21245632
  30        -1.08680141
  31        -1.76611419
  32        -0.11879342
  33         0.06202005
  34         0.00380379
  35        -0.84387600
  36        -0.38300481
  37        -0.00418508
  38         0.39312158
  39        -0.01196794
  40        -0.03312747
  41         0.33578573
  42        -0.42969402
  43        -0.55785928
  44        -2.13503930
  45         4.56002655
  46         0.00451842
  47        -0.25406493
  48        -0.00961967
  49        -0.02112615
  50         1.18773692
  51         0.04496086
  52        -0.49464955
  53        -0.01352422
  54         0.02104963
  55         0.29483381
  56         0.01099211
  57        -0.21245765
  58        -1.08680620
  59        -1.76610829
  60         0.11651323
  61         0.06630768
  62         0.00106746
  63         0.85694963
  64        -0.35200966
  65        -0.02361176
  66         0.39246503
  67         0.02157390
  68        -0.04252625
  69         0.30402304
  70         0.45215098
  71         0.21243957
  72         1.08676017
  73         1.76631873
  74        -0.11891377
  75         0.06218136
  76         0.00378680
  77        -0.84389693
  78        -0.38302360
  79        -0.00418727
  80        -0.39317285
  81         0.01196578
  82         0.03312857
  83        -0.33591943
  84         0.42962359
  85        -0.75882281
  86         0.40284154
  87        -0.50083053
  88        -0.02655452
  89         0.00505980
  90         0.75887613
  91        -0.40287673
  92         0.50142167
  93        -0.00821136
  94        -0.00637196
  95         0.75887372
  96        -0.40287564
  97        -0.50080361
  98        -0.02647356
  99         0.00505610
 100        -0.75882026
 101         0.40284034
 102         0.50145045
 103        -0.00829327
 104        -0.00638455
Sym=   102a  
Ene=     3.2234
Spin= Alpha
Occup=    0.00000
   1         0.00000053
   2         0.00000210
   3        -0.00000406
   4        -0.44862405
   5        -0.00817521
   6         0.00513068
   7        -0.98068839
   8        -0.01786837
   9         0.01121055
  10        -0.00071432
  11         0.03627759
  12        -0.01024396
  13        -0.03433351
  14         0.95312446
  15         0.00515165
  16        -0.12715611
  17        -1.24016151
  18        -0.35840288
  19        -0.70204339
  20        -0.02206764
  21        -0.45265809
  22         0.10997257
  23         0.00961224
  24         0.21070557
  25        -0.00077253
  26         0.01329806
  27        -0.61072992
  28        -0.33401087
  29        -0.00514968
  30         0.12716390
  31         1.24015796
  32         0.38314238
  33        -0.68852960
  34        -0.03056010
  35         0.44845187
  36         0.12639069
  37        -0.00067731
  38        -0.21023939
  39        -0.02294204
  40        -0.00662474
  41         0.63317085
  42        -0.28888783
  43        -0.00000129
  44        -0.00000504
  45         0.00001061
  46         0.44862607
  47         0.00817570
  48        -0.00513507
  49         0.98069207
  50         0.01787139
  51        -0.01122161
  52        -0.00071691
  53         0.03628975
  54        -0.01025910
  55        -0.03433321
  56         0.95312774
  57         0.00514908
  58        -0.12716729
  59        -1.24016440
  60         0.35840696
  61         0.70204404
  62         0.02207152
  63         0.45265919
  64        -0.10997222
  65        -0.00961490
  66         0.21070721
  67        -0.00077218
  68         0.01330686
  69        -0.61073163
  70        -0.33400949
  71        -0.00515101
  72         0.12715920
  73         1.24016517
  74        -0.38313931
  75         0.68852982
  76         0.03055542
  77        -0.44845571
  78        -0.12639264
  79         0.00067142
  80        -0.21024035
  81        -0.02294556
  82        -0.00662249
  83         0.63316760
  84        -0.28888643
  85         0.28705982
  86        -0.14667689
  87        -0.01436151
  88        -0.28593812
  89        -0.01057928
  90        -0.28706125
  91         0.14667747
  92         0.02452281
  93        -0.28523069
  94        -0.01103406
  95         0.28706320
  96        -0.14667847
  97         0.01436056
  98         0.28593908
  99         0.01058031
 100        -0.28706254
 101         0.14667829
 102        -0.02452086
 103         0.28522990
 104         0.01103055
Sym=   103a  
Ene=     3.2877
Spin= Alpha
Occup=    0.00000
   1         0.00000001
   2         0.00000006
   3        -0.00000000
   4         0.57125896
   5         0.01040892
   6        -0.00652080
   7        -0.12757393
   8        -0.00232458
   9         0.00146476
  10         0.00006102
  11        -0.00317961
  12         0.00087206
  13         0.00300109
  14        -0.08332282
  15        -0.00410588
  16        -0.15467628
  17        -1.12905094
  18         0.57112188
  19        -0.30718483
  20        -0.01845920
  21        -0.14296831
  22         0.38567111
  23         0.01623664
  24         0.31719798
  25         0.05127571
  26        -0.02415424
  27        -0.26299750
  28         1.10210013
  29         0.00410691
  30         0.15468059
  31         1.12904958
  32        -0.55982570
  33        -0.32779120
  34        -0.00556966
  35         0.12915813
  36         0.39062853
  37         0.01313002
  38        -0.31885765
  39         0.03321754
  40         0.00035663
  41         0.18300402
  42         1.11864038
  43        -0.00000057
  44        -0.00000224
  45         0.00000446
  46        -0.57125922
  47        -0.01040883
  48         0.00652843
  49         0.12757793
  50         0.00232504
  51        -0.00146267
  52         0.00006086
  53        -0.00318646
  54         0.00087267
  55         0.00300108
  56        -0.08331880
  57        -0.00410705
  58        -0.15468156
  59        -1.12905196
  60        -0.57112072
  61         0.30718606
  62         0.01845509
  63         0.14296866
  64        -0.38567018
  65        -0.01624121
  66         0.31719780
  67         0.05128576
  68        -0.02416113
  69        -0.26299803
  70         1.10210003
  71         0.00410601
  72         0.15467689
  73         1.12905154
  74         0.55982658
  75         0.32779105
  76         0.00555444
  77        -0.12915915
  78        -0.39062966
  79        -0.01313453
  80        -0.31885848
  81         0.03321273
  82         0.00034420
  83         0.18300304
  84         1.11864077
  85         1.69597915
  86        -0.67683034
  87         0.68223801
  88        -0.21616573
  89        -0.01637400
  90        -1.69598107
  91         0.67683117
  92        -0.67410768
  93        -0.24087934
  94        -0.00093153
  95         1.69598167
  96        -0.67683144
  97        -0.68223873
  98         0.21616697
  99         0.01636081
 100        -1.69597994
 101         0.67683076
 102         0.67410759
 103         0.24087975
 104         0.00090316
Sym=   104a  
Ene=     3.7518
Spin= Alpha
Occup=    0.00000
   1         0.11659562
   2         0.57131417
   3         0.45336890
   4         0.00139296
   5        -0.07831080
   6        -0.00297099
   7        -0.00311936
   8         0.17534595
   9         0.00663116
  10        -0.10771696
  11        -0.01239137
  12        -0.02894037
  13         0.94390123
  14         0.03408173
  15        -0.04915626
  16        -0.23263563
  17         0.34727720
  18        -0.36340659
  19         0.27823626
  20         0.01484642
  21        -0.26299686
  22        -0.26846331
  23        -0.00691358
  24         0.01100241
  25        -0.04641230
  26        -0.01087354
  27         0.60637078
  28        -1.04530460
  29         0.04915641
  30         0.23263733
  31        -0.34728129
  32         0.35327765
  33         0.29129317
  34         0.00668356
  35         0.27237354
  36        -0.25870638
  37        -0.01302172
  38        -0.00940664
  39        -0.03468803
  40         0.03375209
  41        -0.52958799
  42        -1.08620798
  43        -0.11660100
  44        -0.57133999
  45        -0.45334185
  46         0.00139329
  47        -0.07831092
  48        -0.00297148
  49        -0.00311982
  50         0.17534572
  51         0.00663017
  52         0.10771622
  53         0.01240902
  54         0.02894590
  55        -0.94389981
  56        -0.03408245
  57         0.04915644
  58         0.23263735
  59        -0.34728092
  60        -0.36340934
  61         0.27823487
  62         0.01484774
  63        -0.26299568
  64        -0.26846145
  65        -0.00691588
  66        -0.01100188
  67         0.04642244
  68         0.01088169
  69        -0.60636924
  70         1.04530561
  71        -0.04915626
  72        -0.23263558
  73         0.34727740
  74         0.35327476
  75         0.29129437
  76         0.00667939
  77         0.27237498
  78        -0.25870818
  79        -0.01302627
  80         0.00940666
  81         0.03468270
  82        -0.03375719
  83         0.52958886
  84         1.08620666
  85        -1.28571427
  86         0.51889521
  87        -0.36144675
  88         0.23715109
  89         0.01328391
  90         1.28571611
  91        -0.51889568
  92         0.35277865
  93         0.25016343
  94         0.00516839
  95         1.28571598
  96        -0.51889564
  97        -0.36144746
  98         0.23715116
  99         0.01327603
 100        -1.28571416
 101         0.51889513
 102         0.35277767
 103         0.25016439
 104         0.00514760
