[Molden Format]
[N_Atoms]
                   10
[Atoms] (AU)
N1          1      7          -0.04748355      2.66925004      0.10101958
C2          2      6          -2.16336629      1.28147185      0.07441547
C3          3      6          -2.11638547     -1.35945677     -0.02548781
N4          4      7           0.04748355     -2.66924834     -0.10101896
C5          5      6           2.16336557     -1.28147191     -0.07442142
C6          6      6           2.11638642      1.35945565      0.02551230
H7          7      1          -3.96011986      2.30661966      0.13467961
H8          8      1          -3.87551298     -2.44939312     -0.04526412
H9          9      1           3.96011867     -2.30662052     -0.13467471
H10        10      1           3.87551397      2.44939344      0.04524010
[5D]
[Charge] (Mulliken)
 -0.29284274799425258     
   9.3524895238152439E-002
   9.3525093897139477E-002
 -0.29284227655313266     
   9.3525104880759713E-002
   9.3524885823307535E-002
   5.2896323080798169E-002
   5.2896199196999283E-002
   5.2896182333087349E-002
   5.2896340095612393E-002
[GTO] (AU)
   1
   s   9
  9.046000000E+03  7.000000346E-04
  1.357000000E+03  5.389000266E-03
  3.093000000E+02  2.740600135E-02
  8.773000000E+01  1.032070051E-01
  2.856000000E+01  2.787230138E-01
  1.021000000E+01  4.485400222E-01
  3.838000000E+00  2.782380137E-01
  7.466000000E-01  1.544000076E-02
  2.248000000E-01 -2.864000141E-03
   s   9
  9.046000000E+03 -1.529999886E-04
  1.357000000E+03 -1.207999910E-03
  3.093000000E+02 -5.991999553E-03
  8.773000000E+01 -2.454399817E-02
  2.856000000E+01 -6.745899497E-02
  1.021000000E+01 -1.580779882E-01
  3.838000000E+00 -1.218309909E-01
  7.466000000E-01  5.490029590E-01
  2.248000000E-01  5.788149568E-01
   s   1
  2.248000000E-01  1.000000000E+00
   p   4
  1.355000000E+01  3.991901233E-02
  2.917000000E+00  2.171690671E-01
  7.973000000E-01  5.103191576E-01
  2.185000000E-01  4.622141427E-01
   p   1
  2.185000000E-01  1.000000000E+00
   d   1
  8.170000000E-01  1.000000000E+00
 
   2
   s   9
  6.665000000E+03  6.920001793E-04
  1.000000000E+03  5.329001381E-03
  2.280000000E+02  2.707700701E-02
  6.471000000E+01  1.017180264E-01
  2.106000000E+01  2.747400712E-01
  7.495000000E+00  4.485641162E-01
  2.797000000E+00  2.850740738E-01
  5.215000000E-01  1.520400394E-02
  1.596000000E-01 -3.191000827E-03
   s   9
  6.665000000E+03 -1.460000642E-04
  1.000000000E+03 -1.154000508E-03
  2.280000000E+02 -5.725002519E-03
  6.471000000E+01 -2.331201026E-02
  2.106000000E+01 -6.395502813E-02
  7.495000000E+00 -1.499810660E-01
  2.797000000E+00 -1.272620560E-01
  5.215000000E-01  5.445292395E-01
  1.596000000E-01  5.804962554E-01
   s   1
  1.596000000E-01  1.000000000E+00
   p   4
  9.439000000E+00  3.810902127E-02
  2.002000000E+00  2.094801169E-01
  5.456000000E-01  5.085572839E-01
  1.517000000E-01  4.688422617E-01
   p   1
  1.517000000E-01  1.000000000E+00
   d   1
  5.500000000E-01  1.000000000E+00
 
   3
   s   9
  6.665000000E+03  6.920001793E-04
  1.000000000E+03  5.329001381E-03
  2.280000000E+02  2.707700701E-02
  6.471000000E+01  1.017180264E-01
  2.106000000E+01  2.747400712E-01
  7.495000000E+00  4.485641162E-01
  2.797000000E+00  2.850740738E-01
  5.215000000E-01  1.520400394E-02
  1.596000000E-01 -3.191000827E-03
   s   9
  6.665000000E+03 -1.460000642E-04
  1.000000000E+03 -1.154000508E-03
  2.280000000E+02 -5.725002519E-03
  6.471000000E+01 -2.331201026E-02
  2.106000000E+01 -6.395502813E-02
  7.495000000E+00 -1.499810660E-01
  2.797000000E+00 -1.272620560E-01
  5.215000000E-01  5.445292395E-01
  1.596000000E-01  5.804962554E-01
   s   1
  1.596000000E-01  1.000000000E+00
   p   4
  9.439000000E+00  3.810902127E-02
  2.002000000E+00  2.094801169E-01
  5.456000000E-01  5.085572839E-01
  1.517000000E-01  4.688422617E-01
   p   1
  1.517000000E-01  1.000000000E+00
   d   1
  5.500000000E-01  1.000000000E+00
 
   4
   s   9
  9.046000000E+03  7.000000346E-04
  1.357000000E+03  5.389000266E-03
  3.093000000E+02  2.740600135E-02
  8.773000000E+01  1.032070051E-01
  2.856000000E+01  2.787230138E-01
  1.021000000E+01  4.485400222E-01
  3.838000000E+00  2.782380137E-01
  7.466000000E-01  1.544000076E-02
  2.248000000E-01 -2.864000141E-03
   s   9
  9.046000000E+03 -1.529999886E-04
  1.357000000E+03 -1.207999910E-03
  3.093000000E+02 -5.991999553E-03
  8.773000000E+01 -2.454399817E-02
  2.856000000E+01 -6.745899497E-02
  1.021000000E+01 -1.580779882E-01
  3.838000000E+00 -1.218309909E-01
  7.466000000E-01  5.490029590E-01
  2.248000000E-01  5.788149568E-01
   s   1
  2.248000000E-01  1.000000000E+00
   p   4
  1.355000000E+01  3.991901233E-02
  2.917000000E+00  2.171690671E-01
  7.973000000E-01  5.103191576E-01
  2.185000000E-01  4.622141427E-01
   p   1
  2.185000000E-01  1.000000000E+00
   d   1
  8.170000000E-01  1.000000000E+00
 
   5
   s   9
  6.665000000E+03  6.920001793E-04
  1.000000000E+03  5.329001381E-03
  2.280000000E+02  2.707700701E-02
  6.471000000E+01  1.017180264E-01
  2.106000000E+01  2.747400712E-01
  7.495000000E+00  4.485641162E-01
  2.797000000E+00  2.850740738E-01
  5.215000000E-01  1.520400394E-02
  1.596000000E-01 -3.191000827E-03
   s   9
  6.665000000E+03 -1.460000642E-04
  1.000000000E+03 -1.154000508E-03
  2.280000000E+02 -5.725002519E-03
  6.471000000E+01 -2.331201026E-02
  2.106000000E+01 -6.395502813E-02
  7.495000000E+00 -1.499810660E-01
  2.797000000E+00 -1.272620560E-01
  5.215000000E-01  5.445292395E-01
  1.596000000E-01  5.804962554E-01
   s   1
  1.596000000E-01  1.000000000E+00
   p   4
  9.439000000E+00  3.810902127E-02
  2.002000000E+00  2.094801169E-01
  5.456000000E-01  5.085572839E-01
  1.517000000E-01  4.688422617E-01
   p   1
  1.517000000E-01  1.000000000E+00
   d   1
  5.500000000E-01  1.000000000E+00
 
   6
   s   9
  6.665000000E+03  6.920001793E-04
  1.000000000E+03  5.329001381E-03
  2.280000000E+02  2.707700701E-02
  6.471000000E+01  1.017180264E-01
  2.106000000E+01  2.747400712E-01
  7.495000000E+00  4.485641162E-01
  2.797000000E+00  2.850740738E-01
  5.215000000E-01  1.520400394E-02
  1.596000000E-01 -3.191000827E-03
   s   9
  6.665000000E+03 -1.460000642E-04
  1.000000000E+03 -1.154000508E-03
  2.280000000E+02 -5.725002519E-03
  6.471000000E+01 -2.331201026E-02
  2.106000000E+01 -6.395502813E-02
  7.495000000E+00 -1.499810660E-01
  2.797000000E+00 -1.272620560E-01
  5.215000000E-01  5.445292395E-01
  1.596000000E-01  5.804962554E-01
   s   1
  1.596000000E-01  1.000000000E+00
   p   4
  9.439000000E+00  3.810902127E-02
  2.002000000E+00  2.094801169E-01
  5.456000000E-01  5.085572839E-01
  1.517000000E-01  4.688422617E-01
   p   1
  1.517000000E-01  1.000000000E+00
   d   1
  5.500000000E-01  1.000000000E+00
 
   7
   s   4
  1.301000000E+01  1.968498999E-02
  1.962000000E+00  1.379769298E-01
  4.446000000E-01  4.781477569E-01
  1.220000000E-01  5.012397451E-01
   s   1
  1.220000000E-01  1.000000000E+00
   p   1
  7.270000000E-01  1.000000000E+00
 
   8
   s   4
  1.301000000E+01  1.968498999E-02
  1.962000000E+00  1.379769298E-01
  4.446000000E-01  4.781477569E-01
  1.220000000E-01  5.012397451E-01
   s   1
  1.220000000E-01  1.000000000E+00
   p   1
  7.270000000E-01  1.000000000E+00
 
   9
   s   4
  1.301000000E+01  1.968498999E-02
  1.962000000E+00  1.379769298E-01
  4.446000000E-01  4.781477569E-01
  1.220000000E-01  5.012397451E-01
   s   1
  1.220000000E-01  1.000000000E+00
   p   1
  7.270000000E-01  1.000000000E+00
 
  10
   s   4
  1.301000000E+01  1.968498999E-02
  1.962000000E+00  1.379769298E-01
  4.446000000E-01  4.781477569E-01
  1.220000000E-01  5.012397451E-01
   s   1
  1.220000000E-01  1.000000000E+00
   p   1
  7.270000000E-01  1.000000000E+00
 
[MO]
Sym=     1a  
Ene=   -15.5960
Spin= Alpha
Occup=    2.00000
   1        -0.71118404
   2        -0.00500011
   3         0.00915154
   4        -0.00004175
   5         0.00234715
   6         0.00008883
   7         0.00006533
   8        -0.00367270
   9        -0.00013900
  10         0.00024715
  11         0.00000635
  12        -0.00001199
  13        -0.00010860
  14        -0.00000410
  15        -0.00011637
  16        -0.00025561
  17        -0.00378744
  18        -0.00006661
  19         0.00010755
  20         0.00000486
  21        -0.00270419
  22         0.00068560
  23         0.00005850
  24        -0.00011636
  25         0.00001540
  26        -0.00000512
  27         0.00016754
  28         0.00052830
  29         0.00011597
  30         0.00025614
  31         0.00377536
  32         0.00006350
  33         0.00011100
  34         0.00000340
  35         0.00267089
  36         0.00078422
  37        -0.00000286
  38         0.00011496
  39         0.00002417
  40        -0.00000603
  41        -0.00020444
  42         0.00051230
  43         0.70520793
  44         0.00496755
  45        -0.00910302
  46        -0.00004142
  47         0.00232850
  48         0.00008814
  49         0.00006492
  50        -0.00364921
  51        -0.00013814
  52        -0.00024532
  53        -0.00000631
  54         0.00001190
  55         0.00010783
  56         0.00000407
  57         0.00011597
  58         0.00025614
  59         0.00377536
  60        -0.00006740
  61         0.00010862
  62         0.00000492
  63        -0.00269705
  64         0.00068641
  65         0.00005846
  66         0.00011574
  67        -0.00001533
  68         0.00000511
  69        -0.00016705
  70        -0.00052586
  71        -0.00011637
  72        -0.00025561
  73        -0.00378744
  74         0.00006274
  75         0.00010991
  76         0.00000338
  77         0.00267805
  78         0.00078367
  79        -0.00000296
  80        -0.00011558
  81        -0.00002428
  82         0.00000607
  83         0.00020511
  84        -0.00051470
  85         0.00001928
  86        -0.00065971
  87         0.00018817
  88         0.00006614
  89         0.00000021
  90        -0.00001741
  91         0.00065748
  92        -0.00018956
  93         0.00005880
  94         0.00000452
  95        -0.00001741
  96         0.00065748
  97         0.00018735
  98         0.00006567
  99         0.00000020
 100         0.00001928
 101        -0.00065971
 102        -0.00019040
 103         0.00005924
 104         0.00000454
Sym=     2a  
Ene=   -15.5960
Spin= Alpha
Occup=    2.00000
   1         0.70490829
   2         0.00383783
   3        -0.00571107
   4         0.00003913
   5        -0.00219952
   6        -0.00008324
   7        -0.00004922
   8         0.00276661
   9         0.00010470
  10        -0.00021585
  11        -0.00000550
  12         0.00001064
  13         0.00009034
  14         0.00000342
  15         0.00004660
  16        -0.00006417
  17         0.00141483
  18        -0.00009450
  19         0.00012666
  20         0.00000591
  21         0.00083394
  22         0.00009818
  23        -0.00000639
  24         0.00007253
  25        -0.00000858
  26         0.00000091
  27        -0.00005768
  28        -0.00028691
  29         0.00004758
  30        -0.00006201
  31         0.00144675
  32        -0.00008940
  33        -0.00012909
  34        -0.00000378
  35         0.00085947
  36        -0.00006111
  37        -0.00001273
  38         0.00007308
  39         0.00001329
  40        -0.00000525
  41        -0.00007990
  42         0.00028625
  43         0.71088693
  44         0.00387991
  45        -0.00578813
  46        -0.00003948
  47         0.00221926
  48         0.00008400
  49         0.00004977
  50        -0.00279752
  51        -0.00010589
  52        -0.00021793
  53        -0.00000555
  54         0.00001075
  55         0.00009125
  56         0.00000345
  57         0.00004758
  58        -0.00006201
  59         0.00144675
  60         0.00009393
  61        -0.00012575
  62        -0.00000587
  63        -0.00085674
  64        -0.00009238
  65         0.00000689
  66         0.00007351
  67        -0.00000871
  68         0.00000096
  69        -0.00005909
  70        -0.00029136
  71         0.00004660
  72        -0.00006417
  73         0.00141483
  74         0.00008993
  75         0.00013002
  76         0.00000381
  77        -0.00083689
  78         0.00006773
  79         0.00001269
  80         0.00007210
  81         0.00001308
  82        -0.00000519
  83        -0.00007817
  84         0.00028191
  85        -0.00022192
  86         0.00026229
  87        -0.00009675
  88        -0.00005489
  89        -0.00000090
  90        -0.00022208
  91         0.00026785
  92        -0.00010024
  93         0.00005183
  94         0.00000317
  95        -0.00022208
  96         0.00026785
  97         0.00009834
  98         0.00005545
  99         0.00000090
 100        -0.00022192
 101         0.00026229
 102         0.00009864
 103        -0.00005133
 104        -0.00000313
Sym=     3a  
Ene=   -11.2910
Spin= Alpha
Occup=    2.00000
   1        -0.00000000
   2         0.00000006
   3        -0.00000014
   4         0.00020420
   5         0.00000372
   6        -0.00000233
   7        -0.00110170
   8        -0.00002001
   9         0.00001259
  10        -0.00000004
  11         0.00000298
  12        -0.00000084
  13        -0.00000283
  14         0.00007831
  15        -0.50056970
  16        -0.00395113
  17         0.00254708
  18        -0.00035483
  19        -0.00016429
  20        -0.00000189
  21         0.00051388
  22        -0.00057183
  23        -0.00002774
  24         0.00013871
  25         0.00000086
  26        -0.00000894
  27         0.00001302
  28        -0.00005013
  29        -0.50054023
  30        -0.00395085
  31         0.00254666
  32        -0.00036043
  33         0.00015125
  34         0.00001007
  35         0.00049320
  36         0.00058999
  37         0.00001622
  38         0.00013861
  39         0.00000470
  40        -0.00001003
  41         0.00000938
  42         0.00005073
  43        -0.00000000
  44         0.00000005
  45        -0.00000011
  46         0.00020418
  47         0.00000373
  48        -0.00000233
  49        -0.00110158
  50        -0.00002013
  51         0.00001260
  52         0.00000008
  53        -0.00000298
  54         0.00000085
  55         0.00000282
  56        -0.00007830
  57         0.50059298
  58         0.00395123
  59        -0.00254690
  60        -0.00035486
  61        -0.00016432
  62        -0.00000188
  63         0.00051382
  64        -0.00057161
  65        -0.00002775
  66        -0.00013871
  67        -0.00000085
  68         0.00000893
  69        -0.00001300
  70         0.00005014
  71         0.50062834
  72         0.00395156
  73        -0.00254735
  74        -0.00036050
  75         0.00015130
  76         0.00001006
  77         0.00049314
  78         0.00059015
  79         0.00001624
  80        -0.00013867
  81        -0.00000471
  82         0.00001002
  83        -0.00000937
  84        -0.00005074
  85         0.00049176
  86        -0.00058626
  87         0.00017055
  88        -0.00000187
  89        -0.00000213
  90         0.00049174
  91        -0.00058625
  92         0.00017035
  93         0.00000808
  94        -0.00000175
  95        -0.00049176
  96         0.00058635
  97         0.00017055
  98        -0.00000187
  99        -0.00000213
 100        -0.00049179
 101         0.00058638
 102         0.00017039
 103         0.00000809
 104        -0.00000176
Sym=     4a  
Ene=   -11.2910
Spin= Alpha
Occup=    2.00000
   1        -0.00003567
   2         0.00091223
   3        -0.00225913
   4         0.00000160
   5        -0.00009049
   6        -0.00000343
   7        -0.00001918
   8         0.00108141
   9         0.00004095
  10         0.00031435
  11         0.00000768
  12        -0.00001668
  13        -0.00010068
  14        -0.00000387
  15         0.50053158
  16         0.00364452
  17        -0.00228909
  18         0.00042386
  19         0.00039378
  20         0.00000968
  21         0.00052280
  22        -0.00029300
  23        -0.00001736
  24        -0.00027292
  25        -0.00000416
  26         0.00001086
  27         0.00015515
  28         0.00009141
  29         0.50050079
  30         0.00364426
  31        -0.00228898
  32         0.00043757
  33        -0.00037807
  34        -0.00001956
  35         0.00051192
  36         0.00031183
  37         0.00000559
  38        -0.00027275
  39        -0.00001068
  40         0.00001270
  41         0.00016131
  42        -0.00007959
  43        -0.00003568
  44         0.00091212
  45        -0.00225882
  46        -0.00000162
  47         0.00009049
  48         0.00000343
  49         0.00001930
  50        -0.00108130
  51        -0.00004096
  52         0.00031432
  53         0.00000768
  54        -0.00001668
  55        -0.00010067
  56        -0.00000386
  57         0.50044207
  58         0.00364380
  59        -0.00228866
  60        -0.00042380
  61        -0.00039375
  62        -0.00000967
  63        -0.00052273
  64         0.00029306
  65         0.00001734
  66        -0.00027286
  67        -0.00000416
  68         0.00001085
  69         0.00015515
  70         0.00009140
  71         0.50047889
  72         0.00364410
  73        -0.00228885
  74        -0.00043755
  75         0.00037807
  76         0.00001953
  77        -0.00051209
  78        -0.00031190
  79        -0.00000555
  80        -0.00027278
  81        -0.00001068
  82         0.00001269
  83         0.00016131
  84        -0.00007959
  85        -0.00019581
  86         0.00099813
  87        -0.00019514
  88         0.00002805
  89         0.00000341
  90        -0.00019580
  91         0.00099806
  92        -0.00019400
  93        -0.00003513
  94         0.00000102
  95        -0.00019574
  96         0.00099799
  97         0.00019510
  98        -0.00002804
  99        -0.00000341
 100        -0.00019576
 101         0.00099807
 102         0.00019400
 103         0.00003514
 104        -0.00000102
Sym=     5a  
Ene=   -11.2900
Spin= Alpha
Occup=    2.00000
   1         0.00014490
   2         0.00155151
   3        -0.00489564
   4         0.00000054
   5        -0.00002683
   6        -0.00000101
   7        -0.00002904
   8         0.00160521
   9         0.00006076
  10         0.00042297
  11         0.00001015
  12        -0.00002308
  13        -0.00011873
  14        -0.00000455
  15         0.50061944
  16         0.00420551
  17        -0.00205706
  18         0.00040300
  19         0.00018236
  20         0.00000199
  21         0.00186586
  22        -0.00012747
  23        -0.00002736
  24        -0.00065606
  25        -0.00000990
  26         0.00004101
  27         0.00001296
  28         0.00010680
  29        -0.50065028
  30        -0.00420574
  31         0.00205720
  32        -0.00040925
  33         0.00016758
  34         0.00001130
  35        -0.00186015
  36        -0.00019538
  37         0.00001513
  38         0.00065592
  39         0.00001797
  40        -0.00004332
  41        -0.00002059
  42         0.00010461
  43        -0.00014489
  44        -0.00155158
  45         0.00489580
  46         0.00000041
  47        -0.00002684
  48        -0.00000101
  49        -0.00002806
  50         0.00160531
  51         0.00006078
  52        -0.00042299
  53        -0.00001016
  54         0.00002309
  55         0.00011873
  56         0.00000464
  57        -0.50089756
  58        -0.00420808
  59         0.00206049
  60         0.00040317
  61         0.00018246
  62         0.00000197
  63         0.00186588
  64        -0.00012602
  65        -0.00002730
  66         0.00065632
  67         0.00000991
  68        -0.00004104
  69        -0.00001294
  70        -0.00010682
  71         0.50086081
  72         0.00420781
  73        -0.00206032
  74        -0.00040936
  75         0.00016763
  76         0.00001127
  77        -0.00186016
  78        -0.00019389
  79         0.00001522
  80        -0.00065614
  81        -0.00001797
  82         0.00004333
  83         0.00002054
  84        -0.00010462
  85        -0.00011496
  86         0.00108775
  87        -0.00032691
  88         0.00015041
  89         0.00000961
  90         0.00011497
  91        -0.00108782
  92         0.00032136
  93         0.00016223
  94         0.00000222
  95         0.00011519
  96        -0.00108794
  97        -0.00032708
  98         0.00015043
  99         0.00000961
 100        -0.00011517
 101         0.00108787
 102         0.00032151
 103         0.00016225
 104         0.00000221
Sym=     6a  
Ene=   -11.2890
Spin= Alpha
Occup=    2.00000
   1        -0.00000004
   2        -0.00000038
   3         0.00000120
   4         0.00025670
   5         0.00000468
   6        -0.00000293
   7        -0.00201259
   8        -0.00003707
   9         0.00002298
  10        -0.00000024
  11         0.00000667
  12        -0.00000188
  13        -0.00000628
  14         0.00017501
  15        -0.50104657
  16        -0.00476681
  17         0.00671714
  18        -0.00028704
  19        -0.00016345
  20        -0.00000269
  21         0.00002454
  22        -0.00301659
  23        -0.00011376
  24         0.00049373
  25         0.00000836
  26        -0.00003467
  27         0.00007475
  28        -0.00002886
  29         0.50107596
  30         0.00476705
  31        -0.00671729
  32         0.00029269
  33        -0.00015289
  34        -0.00000932
  35         0.00008274
  36        -0.00301557
  37        -0.00011443
  38        -0.00049369
  39        -0.00001074
  40         0.00003538
  41        -0.00007251
  42        -0.00003343
  43         0.00000004
  44         0.00000038
  45        -0.00000119
  46        -0.00025672
  47        -0.00000467
  48         0.00000293
  49         0.00201268
  50         0.00003629
  51        -0.00002304
  52        -0.00000003
  53         0.00000667
  54        -0.00000189
  55        -0.00000633
  56         0.00017502
  57        -0.50083473
  58        -0.00476502
  59         0.00671630
  60         0.00028687
  61         0.00016337
  62         0.00000267
  63        -0.00002548
  64         0.00301669
  65         0.00011383
  66         0.00049342
  67         0.00000836
  68        -0.00003466
  69         0.00007476
  70        -0.00002881
  71         0.50079932
  72         0.00476474
  73        -0.00671612
  74        -0.00029247
  75         0.00015280
  76         0.00000929
  77        -0.00008186
  78         0.00301563
  79         0.00011446
  80        -0.00049336
  81        -0.00001074
  82         0.00003535
  83        -0.00007252
  84        -0.00003338
  85         0.00044459
  86        -0.00024535
  87         0.00031973
  88        -0.00003397
  89        -0.00000514
  90        -0.00044462
  91         0.00024538
  92        -0.00031833
  93        -0.00004560
  94         0.00000212
  95         0.00044457
  96        -0.00024486
  97        -0.00031958
  98         0.00003390
  99         0.00000513
 100        -0.00044453
 101         0.00024481
 102         0.00031816
 103         0.00004552
 104        -0.00000214
Sym=     7a  
Ene=    -1.3056
Spin= Alpha
Occup=    2.00000
   1        -0.00946802
   2         0.45378503
   3        -0.06195014
   4         0.00219586
   5        -0.12343851
   6        -0.00467198
   7        -0.00044502
   8         0.02501620
   9         0.00094670
  10        -0.01004185
  11        -0.00022527
  12         0.00060380
  13         0.00135671
  14         0.00005641
  15        -0.00911257
  16         0.30582275
  17        -0.11916193
  18         0.11589679
  19        -0.00413750
  20        -0.00155847
  21        -0.04870059
  22        -0.00472631
  23         0.00041173
  24        -0.00955635
  25         0.00011021
  26         0.00041801
  27         0.00253685
  28         0.00907489
  29        -0.00911263
  30         0.30582402
  31        -0.11916246
  32         0.11567528
  33         0.00835660
  34        -0.00108901
  35        -0.04883748
  36         0.00294923
  37         0.00070358
  38        -0.00954295
  39        -0.00057282
  40         0.00061049
  41         0.00318282
  42        -0.00885460
  43        -0.00946811
  44         0.45378809
  45        -0.06195063
  46        -0.00219585
  47         0.12343918
  48         0.00467264
  49         0.00044501
  50        -0.02501639
  51        -0.00094682
  52        -0.01004190
  53        -0.00022541
  54         0.00060390
  55         0.00135675
  56         0.00005642
  57        -0.00911263
  58         0.30582404
  59        -0.11916247
  60        -0.11589756
  61         0.00413689
  62         0.00155930
  63         0.04870095
  64         0.00472659
  65        -0.00041218
  66        -0.00955638
  67         0.00011004
  68         0.00041807
  69         0.00253696
  70         0.00907499
  71        -0.00911257
  72         0.30582274
  73        -0.11916192
  74        -0.11567450
  75        -0.00835708
  76         0.00108734
  77         0.04883712
  78        -0.00294903
  79        -0.00070272
  80        -0.00954292
  81        -0.00057246
  82         0.00061056
  83         0.00318271
  84        -0.00885452
  85         0.05079016
  86        -0.02603623
  87         0.00602329
  88        -0.00182259
  89        -0.00014135
  90         0.05079041
  91        -0.02603636
  92         0.00595460
  93         0.00204083
  94         0.00000476
  95         0.05079041
  96        -0.02603636
  97        -0.00602333
  98         0.00182258
  99         0.00014136
 100         0.05079015
 101        -0.02603622
 102        -0.00595456
 103        -0.00204083
 104        -0.00000471
Sym=     8a  
Ene=    -1.2187
Spin= Alpha
Occup=    2.00000
   1         0.01196146
   2        -0.54345869
   3         0.05268941
   4        -0.00192018
   5         0.10794143
   6         0.00408568
   7         0.00031788
   8        -0.01786955
   9        -0.00067637
  10         0.00976446
  11         0.00025047
  12        -0.00047560
  13        -0.00424429
  14        -0.00016021
  15         0.00842552
  16        -0.21860028
  17         0.08343715
  18        -0.11894002
  19        -0.10764425
  20        -0.00261023
  21         0.05498472
  22         0.04456647
  23         0.00101097
  24         0.00660159
  25        -0.00037866
  26         0.00035249
  27        -0.01483185
  28        -0.01851267
  29        -0.00842548
  30         0.21859856
  31        -0.08343656
  32         0.12269105
  33        -0.10324142
  34        -0.00537264
  35        -0.05653399
  36         0.04253441
  37         0.00228628
  38        -0.00657464
  39        -0.00098803
  40         0.00003301
  41         0.01612507
  42        -0.01738759
  43        -0.01196143
  44         0.54345622
  45        -0.05268923
  46        -0.00192014
  47         0.10794074
  48         0.00408637
  49         0.00031787
  50        -0.01786949
  51        -0.00067653
  52        -0.00976440
  53        -0.00025059
  54         0.00047568
  55         0.00424430
  56         0.00016022
  57        -0.00842548
  58         0.21859859
  59        -0.08343658
  60        -0.11893961
  61        -0.10764439
  62        -0.00260984
  63         0.05498455
  64         0.04456650
  65         0.00101085
  66        -0.00660155
  67         0.00037862
  68        -0.00035261
  69         0.01483187
  70         0.01851262
  71         0.00842552
  72        -0.21860029
  73         0.08343715
  74         0.12269149
  75        -0.10324134
  76        -0.00537135
  77        -0.05653416
  78         0.04253441
  79         0.00228561
  80         0.00657471
  81         0.00098779
  82        -0.00003289
  83        -0.01612506
  84         0.01738765
  85        -0.05008554
  86         0.02595921
  87        -0.00719892
  88        -0.00041050
  89         0.00007161
  90         0.05008520
  91        -0.02595904
  92         0.00720882
  93        -0.00014799
  94        -0.00009276
  95         0.05008521
  96        -0.02595905
  97        -0.00719889
  98        -0.00041051
  99         0.00007157
 100        -0.05008553
 101         0.02595921
 102         0.00720885
 103        -0.00014797
 104        -0.00009285
Sym=     9a  
Ene=    -1.0507
Spin= Alpha
Occup=    2.00000
   1        -0.00000000
   2         0.00000002
   3        -0.00000000
   4         0.19816559
   5         0.00361087
   6        -0.00226405
   7        -0.03261795
   8        -0.00059435
   9         0.00037275
  10         0.00001358
  11        -0.00069013
  12         0.00019472
  13         0.00065314
  14        -0.01813156
  15         0.01258199
  16        -0.44236002
  17         0.12707556
  18        -0.00625095
  19         0.08134048
  20         0.00313553
  21        -0.00977510
  22        -0.00619241
  23        -0.00011436
  24         0.00888729
  25        -0.00012589
  26        -0.00097347
  27         0.01189173
  28        -0.00448401
  29         0.01258202
  30        -0.44236056
  31         0.12707580
  32        -0.00335398
  33        -0.08151531
  34        -0.00302280
  35        -0.00998897
  36         0.00583222
  37         0.00033846
  38         0.00887995
  39         0.00024726
  40        -0.00107865
  41         0.01153875
  42         0.00531472
  43         0.00000000
  44         0.00000001
  45        -0.00000001
  46         0.19816639
  47         0.00361091
  48        -0.00226471
  49        -0.03261815
  50        -0.00059437
  51         0.00037313
  52        -0.00001359
  53         0.00069022
  54        -0.00019479
  55        -0.00065314
  56         0.01813160
  57        -0.01258202
  58         0.44236053
  59        -0.12707578
  60        -0.00625107
  61         0.08134009
  62         0.00313703
  63        -0.00977506
  64        -0.00619223
  65        -0.00011526
  66        -0.00888728
  67         0.00012583
  68         0.00097368
  69        -0.01189171
  70         0.00448405
  71        -0.01258199
  72         0.44235999
  73        -0.12707556
  74        -0.00335388
  75        -0.08151549
  76        -0.00302548
  77        -0.00998900
  78         0.00583228
  79         0.00034006
  80        -0.00887994
  81        -0.00024713
  82         0.00107885
  83        -0.01153875
  84        -0.00531468
  85        -0.14998721
  86         0.06101993
  87        -0.01038499
  88         0.00774639
  89         0.00041674
  90        -0.14998746
  91         0.06102004
  92        -0.01010276
  93        -0.00811969
  94        -0.00018361
  95         0.14998746
  96        -0.06102003
  97        -0.01038501
  98         0.00774641
  99         0.00041669
 100         0.14998720
 101        -0.06101992
 102        -0.01010274
 103        -0.00811968
 104        -0.00018331
Sym=    10a  
Ene=    -0.8992
Spin= Alpha
Occup=    2.00000
   1         0.00098392
   2        -0.36309692
   3         0.02441694
   4         0.00043028
   5        -0.02418106
   6        -0.00091445
   7         0.00005297
   8        -0.00297915
   9        -0.00011302
  10         0.00108760
  11         0.00008183
  12         0.00013834
  13        -0.00549275
  14        -0.00019868
  15        -0.00601799
  16         0.28722055
  17        -0.06019069
  18        -0.16156831
  19        -0.24016413
  20        -0.00707969
  21         0.04831971
  22         0.07243036
  23         0.00214008
  24        -0.00267569
  25        -0.00018373
  26         0.00089079
  27        -0.01624628
  28        -0.00860825
  29        -0.00601800
  30         0.28722064
  31        -0.06019079
  32        -0.17000564
  33         0.23412230
  34         0.01086590
  35         0.05086456
  36        -0.07062310
  37        -0.00327266
  38        -0.00268770
  39         0.00042673
  40         0.00071863
  41        -0.01682370
  42         0.00742099
  43         0.00098393
  44        -0.36309660
  45         0.02441704
  46        -0.00043027
  47         0.02418112
  48         0.00091407
  49        -0.00005297
  50         0.00297920
  51         0.00011313
  52         0.00108760
  53         0.00008200
  54         0.00013832
  55        -0.00549276
  56        -0.00019869
  57        -0.00601800
  58         0.28722046
  59        -0.06019077
  60         0.16156853
  61         0.24016403
  62         0.00708148
  63        -0.04831977
  64        -0.07243039
  65        -0.00214069
  66        -0.00267566
  67        -0.00018361
  68         0.00089121
  69        -0.01624628
  70        -0.00860824
  71        -0.00601800
  72         0.28722080
  73        -0.06019072
  74         0.17000543
  75        -0.23412227
  76        -0.01086766
  77        -0.05086450
  78         0.07062301
  79         0.00327330
  80        -0.00268768
  81         0.00042647
  82         0.00071900
  83        -0.01682368
  84         0.00742102
  85         0.14245796
  86        -0.06350583
  87         0.00722085
  88        -0.00850089
  89        -0.00040694
  90         0.14245812
  91        -0.06350591
  92         0.00691383
  93         0.00875843
  94         0.00024620
  95         0.14245803
  96        -0.06350587
  97        -0.00722086
  98         0.00850090
  99         0.00040689
 100         0.14245810
 101        -0.06350588
 102        -0.00691383
 103        -0.00875843
 104        -0.00024594
Sym=    11a  
Ene=    -0.8850
Spin= Alpha
Occup=    2.00000
   1        -0.00000000
   2         0.00000010
   3        -0.00000001
   4         0.34902288
   5         0.00635972
   6        -0.00398749
   7        -0.05823720
   8        -0.00106119
   9         0.00066586
  10         0.00001503
  11        -0.00076357
  12         0.00021539
  13         0.00072256
  14        -0.02005876
  15         0.00776429
  16        -0.34625077
  17         0.03367305
  18        -0.03718144
  19        -0.17822417
  20        -0.00625441
  21        -0.00491873
  22         0.09872717
  23         0.00377258
  24         0.00583976
  25        -0.00027418
  26        -0.00005744
  27        -0.00470580
  28        -0.01205315
  29        -0.00776428
  30         0.34624988
  31        -0.03367294
  32         0.04349689
  33        -0.17675479
  34        -0.00718155
  35         0.00140386
  36         0.09884251
  37         0.00370414
  38        -0.00582194
  39        -0.00062923
  40         0.00031267
  41         0.00556059
  42        -0.01167460
  43        -0.00000000
  44         0.00000012
  45        -0.00000001
  46        -0.34902356
  47        -0.00635980
  48         0.00398917
  49         0.05823744
  50         0.00106121
  51        -0.00066625
  52         0.00001504
  53        -0.00076373
  54         0.00021548
  55         0.00072256
  56        -0.02005876
  57         0.00776428
  58        -0.34625004
  59         0.03367298
  60         0.03718201
  61         0.17822497
  62         0.00625392
  63         0.00491848
  64        -0.09872740
  65        -0.00377302
  66         0.00583974
  67        -0.00027417
  68        -0.00005746
  69        -0.00470584
  70        -0.01205317
  71        -0.00776429
  72         0.34625061
  73        -0.03367301
  74        -0.04349630
  75         0.17675412
  76         0.00717900
  77        -0.00140410
  78        -0.09884231
  79        -0.00370319
  80        -0.00582196
  81        -0.00062910
  82         0.00031250
  83         0.00556054
  84        -0.01167459
  85        -0.19749360
  86         0.07027508
  87        -0.01282395
  88         0.00507213
  89         0.00034564
  90         0.19749313
  91        -0.07027489
  92         0.01263522
  93         0.00553597
  94         0.00005587
  95        -0.19749323
  96         0.07027494
  97         0.01282393
  98        -0.00507212
  99        -0.00034550
 100         0.19749349
 101        -0.07027503
 102        -0.01263524
 103        -0.00553600
 104        -0.00005543
Sym=    12a  
Ene=    -0.7215
Spin= Alpha
Occup=    2.00000
   1         0.00014311
   2         0.14174495
   3         0.02570665
   4        -0.00447676
   5         0.25165639
   6         0.00952201
   7         0.00037495
   8        -0.02107735
   9        -0.00079737
  10         0.00435422
  11        -0.00009136
  12        -0.00093312
  13         0.01702727
  14         0.00061008
  15        -0.00337951
  16         0.01368628
  17         0.02139765
  18        -0.23277207
  19         0.22434867
  20         0.01125349
  21         0.05711516
  22        -0.05796457
  23        -0.00287107
  24         0.00393739
  25         0.00034821
  26        -0.00023384
  27        -0.00261241
  28         0.00621256
  29        -0.00337953
  30         0.01368694
  31         0.02139772
  32        -0.22464260
  33        -0.23268359
  34        -0.00603719
  35         0.05501682
  36         0.06000790
  37         0.00159252
  38         0.00394683
  39        -0.00013086
  40        -0.00009840
  41        -0.00215845
  42        -0.00639031
  43         0.00014312
  44         0.14174456
  45         0.02570663
  46         0.00447677
  47        -0.25165720
  48        -0.00952387
  49        -0.00037495
  50         0.02107743
  51         0.00079752
  52         0.00435422
  53        -0.00009135
  54        -0.00093330
  55         0.01702733
  56         0.00061008
  57        -0.00337953
  58         0.01368692
  59         0.02139771
  60         0.23277283
  61        -0.22434910
  62        -0.01125567
  63        -0.05711544
  64         0.05796477
  65         0.00287138
  66         0.00393737
  67         0.00034845
  68        -0.00023419
  69        -0.00261245
  70         0.00621250
  71        -0.00337951
  72         0.01368630
  73         0.02139765
  74         0.22464179
  75         0.23268314
  76         0.00603540
  77        -0.05501652
  78        -0.06000771
  79        -0.00159188
  80         0.00394680
  81        -0.00013119
  82        -0.00009875
  83        -0.00215843
  84        -0.00639035
  85         0.26648563
  86        -0.09630920
  87         0.01251784
  88        -0.00718235
  89        -0.00042123
  90         0.26648680
  91        -0.09630959
  92         0.01225432
  93         0.00763373
  94         0.00013957
  95         0.26648679
  96        -0.09630958
  97        -0.01251789
  98         0.00718240
  99         0.00042106
 100         0.26648564
 101        -0.09630920
 102        -0.01225427
 103        -0.00763371
 104        -0.00013906
Sym=    13a  
Ene=    -0.7000
Spin= Alpha
Occup=    2.00000
   1         0.00000000
   2        -0.00000001
   3        -0.00000000
   4        -0.41750400
   5        -0.00760755
   6         0.00476988
   7         0.06197330
   8         0.00112925
   9        -0.00070817
  10        -0.00001342
  11         0.00068170
  12        -0.00019227
  13        -0.00064500
  14         0.01790571
  15         0.00147491
  16        -0.02088283
  17        -0.01173826
  18         0.20390145
  19         0.35536089
  20         0.01090014
  21        -0.05581302
  22        -0.10469239
  23        -0.00326291
  24        -0.00175492
  25         0.00026210
  26        -0.00035928
  27         0.00909119
  28         0.01086064
  29         0.00147494
  30        -0.02088346
  31        -0.01173858
  32         0.21640914
  33        -0.34770172
  34        -0.01570412
  35        -0.05950078
  36         0.10259087
  37         0.00458130
  38        -0.00173912
  39        -0.00053915
  40        -0.00013324
  41         0.00984895
  42        -0.01017577
  43        -0.00000000
  44         0.00000002
  45         0.00000001
  46        -0.41750398
  47        -0.00760771
  48         0.00477391
  49         0.06197345
  50         0.00112928
  51        -0.00070876
  52         0.00001344
  53        -0.00068189
  54         0.00019252
  55         0.00064501
  56        -0.01790569
  57        -0.00147494
  58         0.02088345
  59         0.01173858
  60         0.20390229
  61         0.35536038
  62         0.01090290
  63        -0.05581340
  64        -0.10469208
  65        -0.00326354
  66         0.00175493
  67        -0.00026208
  68         0.00035971
  69        -0.00909116
  70        -0.01086066
  71        -0.00147491
  72         0.02088285
  73         0.01173827
  74         0.21640836
  75        -0.34770212
  76        -0.01570466
  77        -0.05950042
  78         0.10259116
  79         0.00458125
  80         0.00173917
  81         0.00053891
  82         0.00013369
  83        -0.00984895
  84         0.01017575
  85        -0.01555707
  86         0.00896875
  87         0.00061833
  88         0.00424047
  89         0.00015203
  90        -0.01555814
  91         0.00896905
  92         0.00076871
  93        -0.00421521
  94        -0.00016793
  95         0.01555814
  96        -0.00896905
  97         0.00061829
  98         0.00424049
  99         0.00015207
 100         0.01555710
 101        -0.00896877
 102         0.00076875
 103        -0.00421519
 104        -0.00016793
Sym=    14a  
Ene=    -0.6716
Spin= Alpha
Occup=    2.00000
   1         0.00075904
   2        -0.16790189
   3         0.00113987
   4        -0.00160658
   5         0.09030934
   6         0.00341315
   7         0.00032366
   8        -0.01819385
   9        -0.00068841
  10        -0.00066515
  11        -0.00014630
  12        -0.00042630
  13         0.01233148
  14         0.00044470
  15        -0.00274555
  16         0.21692272
  17        -0.01964509
  18        -0.25738743
  19         0.10056356
  20         0.00689148
  21         0.05676345
  22        -0.02394659
  23        -0.00158611
  24         0.00327707
  25        -0.00069162
  26         0.00005567
  27        -0.00058860
  28        -0.02039684
  29         0.00274554
  30        -0.21692266
  31         0.01964517
  32         0.25364313
  33         0.10987408
  34         0.00106218
  35        -0.05587482
  36        -0.02599870
  37        -0.00030230
  38        -0.00324662
  39        -0.00085775
  40         0.00038053
  41         0.00205447
  42        -0.02029672
  43        -0.00075905
  44         0.16790218
  45        -0.00113988
  46        -0.00160654
  47         0.09030872
  48         0.00341404
  49         0.00032365
  50        -0.01819384
  51        -0.00068848
  52         0.00066516
  53         0.00014626
  54         0.00042639
  55        -0.01233142
  56        -0.00044469
  57         0.00274554
  58        -0.21692265
  59         0.01964517
  60        -0.25738674
  61         0.10056267
  62         0.00689103
  63         0.05676332
  64        -0.02394638
  65        -0.00158604
  66        -0.00327706
  67         0.00069151
  68        -0.00005572
  69         0.00058863
  70         0.02039686
  71        -0.00274555
  72         0.21692273
  73        -0.01964508
  74         0.25364380
  75         0.10987511
  76         0.00105917
  77        -0.05587494
  78        -0.02599896
  79        -0.00030135
  80         0.00324662
  81         0.00085739
  82        -0.00038070
  83        -0.00205445
  84         0.02029672
  85         0.36589975
  86        -0.12369235
  87         0.01407646
  88        -0.01120975
  89        -0.00059165
  90        -0.36589884
  91         0.12369204
  92        -0.01366860
  93        -0.01171523
  94        -0.00027610
  95        -0.36589882
  96         0.12369204
  97         0.01407641
  98        -0.01120974
  99        -0.00059152
 100         0.36589980
 101        -0.12369237
 102        -0.01366864
 103        -0.01171527
 104        -0.00027558
Sym=    15a  
Ene=    -0.6050
Spin= Alpha
Occup=    2.00000
   1         0.00000000
   2         0.00000002
   3         0.00000000
   4        -0.11479491
   5        -0.00209294
   6         0.00134322
   7         0.03026078
   8         0.00055145
   9        -0.00034705
  10        -0.00001180
  11         0.00059312
  12        -0.00016934
  13        -0.00056154
  14         0.01558662
  15         0.00285201
  16         0.08240747
  17        -0.00762954
  18         0.29815921
  19        -0.25630884
  20        -0.01321818
  21        -0.04931706
  22         0.06353800
  23         0.00298304
  24        -0.00113944
  25         0.00026022
  26         0.00054586
  27        -0.01355148
  28         0.00315778
  29         0.00285202
  30         0.08240734
  31        -0.00762960
  32         0.28885043
  33         0.26700264
  34         0.00657845
  35        -0.04702542
  36        -0.06529325
  37        -0.00189119
  38        -0.00113391
  39        -0.00001737
  40         0.00062508
  41        -0.01328919
  42        -0.00412308
  43        -0.00000000
  44        -0.00000001
  45         0.00000001
  46        -0.11479552
  47        -0.00209305
  48         0.00134529
  49         0.03026096
  50         0.00055146
  51        -0.00034712
  52         0.00001182
  53        -0.00059328
  54         0.00016951
  55         0.00056155
  56        -0.01558667
  57        -0.00285202
  58        -0.08240733
  59         0.00762959
  60         0.29815977
  61        -0.25630890
  62        -0.01322037
  63        -0.04931723
  64         0.06353808
  65         0.00298320
  66         0.00113941
  67        -0.00026011
  68        -0.00054631
  69         0.01355148
  70        -0.00315786
  71        -0.00285201
  72        -0.08240748
  73         0.00762954
  74         0.28884982
  75         0.26700256
  76         0.00657614
  77        -0.04702524
  78        -0.06529318
  79        -0.00189054
  80         0.00113389
  81         0.00001693
  82        -0.00062544
  83         0.01328916
  84         0.00412302
  85        -0.32898295
  86         0.10190716
  87        -0.01224752
  88         0.00475600
  89         0.00032738
  90        -0.32898366
  91         0.10190734
  92        -0.01207045
  93        -0.00519913
  94        -0.00004948
  95         0.32898370
  96        -0.10190735
  97        -0.01224754
  98         0.00475602
  99         0.00032724
 100         0.32898290
 101        -0.10190715
 102        -0.01207042
 103        -0.00519912
 104        -0.00004906
Sym=    16a  
Ene=    -0.5705
Spin= Alpha
Occup=    2.00000
   1        -0.00000005
   2         0.00000148
   3         0.00000246
   4         0.00435044
   5        -0.01343952
   6         0.35736042
   7        -0.00008936
   8         0.00026136
   9        -0.00698156
  10        -0.00137089
  11         0.00036234
  12        -0.02088264
  13        -0.00078176
  14        -0.00026950
  15        -0.00000029
  16        -0.00000660
  17        -0.00000298
  18         0.00370112
  19        -0.01162216
  20         0.30967187
  21        -0.00032293
  22         0.00101866
  23        -0.02718594
  24        -0.00074745
  25         0.01891599
  26        -0.00537776
  27         0.00002766
  28        -0.00077906
  29        -0.00000031
  30        -0.00000413
  31         0.00000506
  32         0.00373769
  33        -0.01167749
  34         0.30966996
  35        -0.00032623
  36         0.00103142
  37        -0.02718552
  38         0.00000237
  39         0.01871718
  40         0.00607967
  41         0.00045686
  42        -0.00063210
  43         0.00000004
  44        -0.00000152
  45        -0.00000247
  46         0.00433216
  47        -0.01344296
  48         0.35736177
  49        -0.00008562
  50         0.00026141
  51        -0.00698166
  52         0.00137116
  53        -0.00036237
  54         0.02088268
  55         0.00078196
  56         0.00026851
  57         0.00000016
  58         0.00000572
  59         0.00000106
  60         0.00372342
  61        -0.01162437
  62         0.30967214
  63        -0.00032557
  64         0.00101778
  65        -0.02718605
  66         0.00074825
  67        -0.01891612
  68         0.00537766
  69        -0.00002730
  70         0.00077709
  71         0.00000039
  72         0.00000747
  73        -0.00000238
  74         0.00371750
  75        -0.01167722
  76         0.30966959
  77        -0.00032404
  78         0.00103019
  79        -0.02718549
  80        -0.00000336
  81        -0.01871721
  82        -0.00607961
  83        -0.00045723
  84         0.00062979
  85         0.00004576
  86        -0.00001306
  87         0.00008139
  88        -0.00024971
  89         0.00661746
  90         0.00001367
  91        -0.00000248
  92         0.00008050
  93        -0.00024936
  94         0.00661750
  95        -0.00002389
  96         0.00000617
  97         0.00008073
  98        -0.00024906
  99         0.00661751
 100        -0.00003559
 101         0.00000979
 102         0.00008126
 103        -0.00024859
 104         0.00661750
Sym=    17a  
Ene=    -0.5461
Spin= Alpha
Occup=    2.00000
   1         0.00000000
   2         0.00000001
   3        -0.00000000
   4        -0.34796080
   5        -0.00634116
   6         0.00399627
   7         0.05119699
   8         0.00093289
   9        -0.00058496
  10        -0.00001462
  11         0.00073898
  12        -0.00020978
  13        -0.00069974
  14         0.01942388
  15         0.00368931
  16        -0.02386097
  17        -0.01561013
  18         0.34054733
  19         0.01437265
  20        -0.00355839
  21        -0.06310443
  22        -0.00122299
  23         0.00071509
  24        -0.00285299
  25         0.00131514
  26         0.00006107
  27        -0.00764751
  28         0.03405965
  29        -0.00368930
  30         0.02386114
  31         0.01561013
  32        -0.34083653
  33         0.00195721
  34         0.00420992
  35         0.06310691
  36         0.00107674
  37        -0.00072396
  38         0.00280166
  39         0.00129630
  40        -0.00079622
  41         0.00517724
  42         0.03451734
  43        -0.00000000
  44        -0.00000003
  45        -0.00000001
  46         0.34795999
  47         0.00634042
  48        -0.00397566
  49        -0.05119697
  50        -0.00093290
  51         0.00058518
  52        -0.00001455
  53         0.00073913
  54        -0.00020860
  55        -0.00069969
  56         0.01942384
  57         0.00368930
  58        -0.02386111
  59        -0.01561013
  60        -0.34054618
  61        -0.01437320
  62         0.00357876
  63         0.06310434
  64         0.00122298
  65        -0.00071654
  66        -0.00285293
  67         0.00131393
  68         0.00006141
  69        -0.00764747
  70         0.03405967
  71        -0.00368931
  72         0.02386094
  73         0.01561014
  74         0.34083766
  75        -0.00195812
  76        -0.00419130
  77        -0.06310701
  78        -0.00107662
  79         0.00072294
  80         0.00280167
  81         0.00129469
  82        -0.00079671
  83         0.00517724
  84         0.03451742
  85        -0.33496413
  86         0.08570436
  87        -0.00801422
  88         0.00868418
  89         0.00042383
  90         0.33496352
  91        -0.08570416
  92         0.00770014
  93         0.00897048
  94         0.00024491
  95        -0.33496348
  96         0.08570415
  97         0.00801420
  98        -0.00868419
  99        -0.00042333
 100         0.33496412
 101        -0.08570435
 102        -0.00770015
 103        -0.00897052
 104        -0.00024418
Sym=    18a  
Ene=    -0.4985
Spin= Alpha
Occup=    2.00000
   1         0.00513034
   2         0.26586716
   3        -0.00895033
   4        -0.01024645
   5         0.57599151
   6         0.02179187
   7        -0.00050486
   8         0.02838072
   9         0.00107437
  10         0.01306526
  11         0.00016692
  12        -0.00123289
  13         0.00997905
  14         0.00034966
  15        -0.00020237
  16        -0.17327077
  17         0.02020614
  18        -0.10787285
  19        -0.01813356
  20         0.00061995
  21         0.09047991
  22         0.04921225
  23         0.00075635
  24         0.00143886
  25         0.00061716
  26         0.00076871
  27        -0.02530868
  28         0.00747612
  29         0.00020237
  30         0.17327065
  31        -0.02020616
  32         0.10844741
  33        -0.01419143
  34        -0.00185233
  35        -0.09217157
  36         0.04588390
  37         0.00284314
  38        -0.00145141
  39         0.00001975
  40        -0.00094894
  41         0.02470506
  42         0.00927988
  43        -0.00513032
  44        -0.26586655
  45         0.00895050
  46        -0.01024639
  47         0.57599055
  48         0.02179805
  49        -0.00050485
  50         0.02838062
  51         0.00107474
  52        -0.01306521
  53        -0.00016703
  54         0.00123325
  55        -0.00997903
  56        -0.00034965
  57         0.00020237
  58         0.17327067
  59        -0.02020618
  60        -0.10787242
  61        -0.01813319
  62         0.00062216
  63         0.09047991
  64         0.04921207
  65         0.00075654
  66        -0.00143886
  67        -0.00061749
  68        -0.00076894
  69         0.02530866
  70        -0.00747614
  71        -0.00020237
  72        -0.17327077
  73         0.02020614
  74         0.10844776
  75        -0.01419182
  76        -0.00185296
  77        -0.09217158
  78         0.04588406
  79         0.00284315
  80         0.00145140
  81        -0.00001961
  82         0.00094878
  83        -0.02470508
  84        -0.00927987
  85        -0.03391483
  86         0.02553252
  87        -0.00202477
  88        -0.00297997
  89        -0.00008757
  90         0.03391494
  91        -0.02553255
  92         0.00212945
  93        -0.00290425
  94        -0.00013534
  95         0.03391499
  96        -0.02553256
  97        -0.00202478
  98        -0.00297996
  99        -0.00008749
 100        -0.03391485
 101         0.02553252
 102         0.00212945
 103        -0.00290427
 104        -0.00013524
Sym=    19a  
Ene=    -0.4322
Spin= Alpha
Occup=    2.00000
   1        -0.00000021
   2        -0.00001978
   3        -0.00000294
   4        -0.00600495
   5         0.01859298
   6        -0.49525499
   7        -0.00027288
   8         0.00084719
   9        -0.02264360
  10         0.00145833
  11        -0.00038583
  12         0.02223110
  13         0.00083268
  14         0.00028500
  15         0.00000041
  16         0.00000126
  17        -0.00000589
  18        -0.00277364
  19         0.00868620
  20        -0.23023514
  21        -0.00021672
  22         0.00065285
  23        -0.01751186
  24        -0.00078127
  25        -0.02379274
  26        -0.01962452
  27        -0.00102481
  28         0.00065712
  29         0.00000016
  30         0.00000763
  31        -0.00000316
  32         0.00278512
  33        -0.00868937
  34         0.23023417
  35         0.00020847
  36        -0.00065160
  37         0.01751193
  38        -0.00173679
  39         0.02445827
  40        -0.01872447
  41        -0.00040689
  42        -0.00114635
  43        -0.00000017
  44        -0.00001924
  45        -0.00000390
  46         0.00601124
  47        -0.01860005
  48         0.49525384
  49         0.00027203
  50        -0.00084786
  51         0.02264349
  52         0.00145869
  53        -0.00038581
  54         0.02223101
  55         0.00083288
  56         0.00028524
  57         0.00000030
  58        -0.00000152
  59        -0.00000487
  60         0.00277325
  61        -0.00868772
  62         0.23023443
  63         0.00021512
  64        -0.00065340
  65         0.01751177
  66        -0.00078131
  67        -0.02379271
  68        -0.01962452
  69        -0.00102540
  70         0.00065734
  71         0.00000011
  72         0.00000525
  73        -0.00000377
  74        -0.00278808
  75         0.00868871
  76        -0.23023487
  77        -0.00020765
  78         0.00065166
  79        -0.01751202
  80        -0.00173647
  81         0.02445830
  82        -0.01872447
  83        -0.00040692
  84        -0.00114619
  85         0.00000914
  86        -0.00000305
  87        -0.00005996
  88         0.00018829
  89        -0.00499964
  90         0.00002114
  91        -0.00000395
  92         0.00006101
  93        -0.00018859
  94         0.00499960
  95         0.00000858
  96        -0.00000268
  97         0.00005992
  98        -0.00018823
  99         0.00499963
 100         0.00002141
 101        -0.00000456
 102        -0.00006116
 103         0.00018841
 104        -0.00499962
Sym=    20a  
Ene=    -0.4086
Spin= Alpha
Occup=    2.00000
   1        -0.00149627
   2        -0.19397032
   3        -0.04301222
   4         0.00892698
   5        -0.50179309
   6        -0.01894696
   7         0.00111032
   8        -0.06241428
   9        -0.00235938
  10        -0.01275923
  11        -0.00026324
  12         0.00084195
  13        -0.00028791
  14        -0.00000087
  15         0.00277641
  16         0.01500964
  17        -0.05549186
  18         0.04233078
  19         0.31247391
  20         0.01123545
  21        -0.04134412
  22        -0.07855087
  23        -0.00245281
  24        -0.00169591
  25        -0.00075208
  26        -0.00085929
  27         0.02897935
  28        -0.00978184
  29         0.00277641
  30         0.01501004
  31        -0.05549199
  32         0.05341669
  33        -0.31072708
  34        -0.01238362
  35        -0.04411144
  36         0.07699377
  37         0.00343006
  38        -0.00171215
  39         0.00006656
  40        -0.00109374
  41         0.02820025
  42         0.01184421
  43        -0.00149627
  44        -0.19397060
  45        -0.04301206
  46        -0.00892694
  47         0.50179380
  48         0.01895120
  49        -0.00111032
  50         0.06241439
  51         0.00235988
  52        -0.01275923
  53        -0.00026338
  54         0.00084215
  55        -0.00028791
  56        -0.00000086
  57         0.00277641
  58         0.01501004
  59        -0.05549200
  60        -0.04233087
  61        -0.31247373
  62        -0.01123721
  63         0.04134440
  64         0.07855094
  65         0.00245283
  66        -0.00169592
  67        -0.00075228
  68        -0.00085974
  69         0.02897939
  70        -0.00978191
  71         0.00277641
  72         0.01500963
  73        -0.05549187
  74        -0.05341662
  75         0.31072724
  76         0.01238277
  77         0.04411117
  78        -0.07699373
  79        -0.00342940
  80        -0.00171217
  81         0.00006639
  82        -0.00109395
  83         0.02820019
  84         0.01184414
  85         0.19474727
  86        -0.03965093
  87         0.00665297
  88         0.00375002
  89         0.00006056
  90         0.19474762
  91        -0.03965104
  92         0.00678204
  93        -0.00350518
  94        -0.00021478
  95         0.19474768
  96        -0.03965105
  97        -0.00665299
  98        -0.00375001
  99        -0.00006063
 100         0.19474723
 101        -0.03965092
 102        -0.00678203
 103         0.00350518
 104         0.00021492
Sym=    21a  
Ene=    -0.3567
Spin= Alpha
Occup=    2.00000
   1         0.00000002
   2         0.00001131
   3         0.00000337
   4        -0.00000498
   5         0.00003001
   6         0.00000121
   7         0.00000005
   8         0.00000494
   9         0.00000019
  10        -0.00045451
  11         0.02299994
  12         0.00042900
  13         0.00029402
  14        -0.00086019
  15         0.00000008
  16         0.00000095
  17         0.00000044
  18        -0.00518888
  19         0.01612055
  20        -0.42917377
  21        -0.00029338
  22         0.00092427
  23        -0.02440749
  24         0.00130613
  25        -0.00417175
  26         0.01867639
  27         0.00065114
  28         0.00038476
  29        -0.00000026
  30        -0.00001147
  31         0.00000196
  32        -0.00520344
  33         0.01617088
  34        -0.42917181
  35        -0.00029158
  36         0.00091466
  37        -0.02440788
  38        -0.00115381
  39        -0.00352099
  40        -0.01881979
  41        -0.00075289
  42        -0.00009575
  43         0.00000014
  44         0.00001326
  45         0.00000214
  46         0.00000476
  47        -0.00002895
  48        -0.00000114
  49         0.00000016
  50        -0.00000536
  51        -0.00000020
  52        -0.00045482
  53         0.02299996
  54         0.00042902
  55         0.00029416
  56        -0.00086038
  57        -0.00000004
  58        -0.00000518
  59         0.00000094
  60         0.00518967
  61        -0.01612579
  62         0.42917364
  63         0.00029282
  64        -0.00092303
  65         0.02440755
  66         0.00130660
  67        -0.00417174
  68         0.01867635
  69         0.00065138
  70         0.00038488
  71        -0.00000024
  72        -0.00000397
  73         0.00000295
  74         0.00520607
  75        -0.01617006
  76         0.42917169
  77         0.00029243
  78        -0.00091372
  79         0.02440790
  80        -0.00115435
  81        -0.00352101
  82        -0.01881974
  83        -0.00075306
  84        -0.00009581
  85        -0.00001432
  86         0.00000085
  87        -0.00012034
  88         0.00037326
  89        -0.00993213
  90        -0.00000298
  91         0.00000014
  92        -0.00012022
  93         0.00037432
  94        -0.00993209
  95        -0.00001247
  96         0.00000073
  97         0.00012019
  98        -0.00037328
  99         0.00993213
 100        -0.00000505
 101         0.00000079
 102         0.00012055
 103        -0.00037414
 104         0.00993209
Sym=    22a  
Ene=     0.0920
Spin= Alpha
Occup=    0.00000
   1         0.00000049
   2        -0.00000190
   3        -0.00001061
   4        -0.00593645
   5         0.01844073
   6        -0.49006958
   7        -0.00289427
   8         0.00900651
   9        -0.23934070
  10         0.00030526
  11        -0.00008076
  12         0.00465203
  13         0.00017460
  14         0.00005907
  15        -0.00000052
  16        -0.00000415
  17         0.00000836
  18         0.00305362
  19        -0.00949243
  20         0.25257828
  21         0.00146736
  22        -0.00453032
  23         0.12056849
  24        -0.00156889
  25        -0.02416968
  26        -0.03181320
  27        -0.00149085
  28         0.00052366
  29        -0.00000037
  30         0.00000332
  31         0.00000793
  32         0.00305223
  33        -0.00950272
  34         0.25257756
  35         0.00144002
  36        -0.00453674
  37         0.12056869
  38         0.00254778
  39        -0.02525793
  40         0.03089112
  41         0.00085851
  42         0.00132617
  43        -0.00000052
  44         0.00000166
  45         0.00001123
  46        -0.00593856
  47         0.01844445
  48        -0.49006895
  49        -0.00290541
  50         0.00900807
  51        -0.23934045
  52        -0.00030533
  53         0.00008074
  54        -0.00465202
  55        -0.00017458
  56        -0.00005953
  57         0.00000006
  58        -0.00000302
  59        -0.00000123
  60         0.00305276
  61        -0.00949851
  62         0.25257755
  63         0.00144571
  64        -0.00453020
  65         0.12056877
  66         0.00156857
  67         0.02416968
  68         0.03181322
  69         0.00149094
  70        -0.00052348
  71         0.00000044
  72         0.00000259
  73        -0.00001183
  74         0.00305445
  75        -0.00950302
  76         0.25257808
  77         0.00146265
  78        -0.00453604
  79         0.12056846
  80        -0.00254707
  81         0.02525796
  82        -0.03089117
  83        -0.00085825
  84        -0.00132571
  85        -0.00000318
  86        -0.00000009
  87         0.00011363
  88        -0.00035345
  89         0.00940711
  90        -0.00000873
  91        -0.00001185
  92         0.00011370
  93        -0.00035464
  94         0.00940705
  95         0.00000790
  96         0.00001221
  97         0.00011365
  98        -0.00035319
  99         0.00940710
 100         0.00000306
 101         0.00000068
 102         0.00011370
 103        -0.00035403
 104         0.00940710
Sym=    23a  
Ene=     0.1198
Spin= Alpha
Occup=    0.00000
   1         0.00000065
   2         0.00000596
   3        -0.00000932
   4         0.00000249
   5        -0.00000102
   6         0.00000003
   7         0.00000140
   8         0.00000628
   9         0.00000027
  10        -0.00059501
  11         0.03007406
  12         0.00056100
  13         0.00038458
  14        -0.00112503
  15        -0.00000043
  16        -0.00000733
  17         0.00001682
  18        -0.00517681
  19         0.01611162
  20        -0.42827710
  21        -0.00363217
  22         0.01132192
  23        -0.30129642
  24        -0.00151378
  25        -0.00352913
  26        -0.02432571
  27        -0.00095905
  28        -0.00016264
  29        -0.00000037
  30         0.00001585
  31         0.00000824
  32         0.00518620
  33        -0.01612154
  34         0.42827652
  35         0.00363647
  36        -0.01135402
  37         0.30129507
  38        -0.00166893
  39         0.00437102
  40        -0.02417844
  41        -0.00085800
  42        -0.00045766
  43        -0.00000062
  44        -0.00001093
  45         0.00000384
  46         0.00000487
  47        -0.00000277
  48        -0.00000004
  49         0.00000067
  50         0.00000575
  51         0.00000027
  52         0.00059558
  53        -0.03007407
  54        -0.00056104
  55        -0.00038446
  56         0.00112513
  57        -0.00000054
  58         0.00000615
  59         0.00000042
  60        -0.00517691
  61         0.01610875
  62        -0.42827722
  63        -0.00363718
  64         0.01132462
  65        -0.30129620
  66         0.00151427
  67         0.00352917
  68         0.02432568
  69         0.00095899
  70         0.00016286
  71        -0.00000039
  72        -0.00001033
  73         0.00000539
  74         0.00518869
  75        -0.01611631
  76         0.42827667
  77         0.00364168
  78        -0.01134829
  79         0.30129525
  80         0.00166966
  81        -0.00437098
  82         0.02417838
  83         0.00085814
  84         0.00045756
  85         0.00000675
  86         0.00000981
  87        -0.00018003
  88         0.00056075
  89        -0.01490243
  90        -0.00001266
  91        -0.00001695
  92         0.00018013
  93        -0.00056094
  94         0.01490242
  95        -0.00001129
  96        -0.00000995
  97        -0.00017999
  98         0.00056076
  99        -0.01490243
 100         0.00000310
 101         0.00000945
 102         0.00018037
 103        -0.00056082
 104         0.01490242
Sym=    24a  
Ene=     0.1942
Spin= Alpha
Occup=    0.00000
   1        -0.00040481
   2        -0.00269006
   3         0.01174245
   4        -0.00069828
   5         0.03925547
   6         0.00148769
   7        -0.00200100
   8         0.11248299
   9         0.00425647
  10         0.00432692
  11         0.00021590
  12         0.00016158
  13        -0.01165006
  14        -0.00042290
  15         0.02309227
  16        -0.09442740
  17        -0.69380192
  18         0.13830440
  19        -0.12711546
  20        -0.00645626
  21         0.27425234
  22        -0.20020164
  23        -0.01084827
  24         0.00679193
  25         0.00012775
  26        -0.00048000
  27         0.00099581
  28        -0.00007111
  29         0.02309227
  30        -0.09442742
  31        -0.69380193
  32         0.13369368
  33         0.13207122
  34         0.00336061
  35         0.26695459
  36         0.21006231
  37         0.00468722
  38         0.00679174
  39         0.00013496
  40        -0.00048278
  41         0.00098846
  42         0.00013244
  43        -0.00040478
  44        -0.00269004
  45         0.01174197
  46         0.00069828
  47        -0.03925556
  48        -0.00148797
  49         0.00200100
  50        -0.11248325
  51        -0.00425733
  52         0.00432694
  53         0.00021573
  54         0.00016169
  55        -0.01165007
  56        -0.00042289
  57         0.02309228
  58        -0.09442738
  59        -0.69380196
  60        -0.13830432
  61         0.12711560
  62         0.00645286
  63        -0.27425269
  64         0.20020191
  65         0.01083859
  66         0.00679196
  67         0.00012734
  68        -0.00047965
  69         0.00099583
  70        -0.00007110
  71         0.02309227
  72        -0.09442744
  73        -0.69380195
  74        -0.13369374
  75        -0.13207145
  76        -0.00335445
  77        -0.26695422
  78        -0.21006297
  79        -0.00467232
  80         0.00679177
  81         0.00013543
  82        -0.00048230
  83         0.00098847
  84         0.00013241
  85         0.02228842
  86         1.00196468
  87         0.00933380
  88        -0.00768531
  89        -0.00040206
  90         0.02228834
  91         1.00196489
  92         0.00905441
  93         0.00802035
  94         0.00019252
  95         0.02228832
  96         1.00196478
  97        -0.00933380
  98         0.00768531
  99         0.00040191
 100         0.02228843
 101         1.00196490
 102        -0.00905441
 103        -0.00802036
 104        -0.00019228
Sym=    25a  
Ene=     0.2079
Spin= Alpha
Occup=    0.00000
   1        -0.00000000
   2        -0.00000002
   3         0.00000005
   4         0.01022923
   5         0.00018666
   6        -0.00012364
   7        -0.11044472
   8        -0.00201228
   9         0.00125640
  10        -0.00000414
  11         0.00020922
  12        -0.00005940
  13        -0.00019805
  14         0.00549773
  15         0.01601322
  16        -0.04878204
  17        -0.75835414
  18         0.19693210
  19        -0.09428338
  20        -0.00592382
  21         0.40019123
  22        -0.31326024
  23        -0.01662246
  24         0.00735909
  25         0.00028139
  26        -0.00033438
  27        -0.00450506
  28         0.00194039
  29         0.01601320
  30        -0.04878197
  31        -0.75835421
  32         0.19345097
  33         0.10139630
  34         0.00147788
  35         0.38878982
  36         0.32763599
  37         0.00763429
  38         0.00736224
  39         0.00012109
  40        -0.00028939
  41        -0.00435335
  42        -0.00227046
  43         0.00000000
  44         0.00000001
  45        -0.00000008
  46         0.01022933
  47         0.00018654
  48        -0.00012071
  49        -0.11044510
  50        -0.00201222
  51         0.00125443
  52         0.00000415
  53        -0.00020928
  54         0.00005950
  55         0.00019806
  56        -0.00549775
  57        -0.01601320
  58         0.04878193
  59         0.75835413
  60         0.19693191
  61        -0.09428336
  62        -0.00592675
  63         0.40019070
  64        -0.31326073
  65        -0.01661725
  66        -0.00735913
  67        -0.00028119
  68         0.00033411
  69         0.00450502
  70        -0.00194038
  71        -0.01601322
  72         0.04878208
  73         0.75835420
  74         0.19345110
  75         0.10139623
  76         0.00147746
  77         0.38879025
  78         0.32763619
  79         0.00762157
  80        -0.00736226
  81        -0.00012171
  82         0.00028877
  83         0.00435335
  84         0.00227050
  85         0.01670521
  86         1.14150425
  87         0.01536905
  88        -0.00728403
  89        -0.00045968
  90         0.01670522
  91         1.14150406
  92         0.01510001
  93         0.00783919
  94         0.00011227
  95        -0.01670520
  96        -1.14150381
  97         0.01536904
  98        -0.00728402
  99        -0.00045984
 100        -0.01670522
 101        -1.14150444
 102         0.01510001
 103         0.00783920
 104         0.00011224
Sym=    26a  
Ene=     0.2398
Spin= Alpha
Occup=    0.00000
   1        -0.02473886
   2        -0.11231114
   3         0.51985295
   4        -0.00158480
   5         0.08908668
   6         0.00337022
   7         0.00376320
   8        -0.21154179
   9        -0.00800535
  10        -0.00608959
  11        -0.00024568
  12        -0.00002235
  13         0.01101687
  14         0.00040140
  15        -0.01496669
  16         0.13373687
  17         0.33960560
  18        -0.13236311
  19         0.07880670
  20         0.00456038
  21        -0.75640255
  22         0.38702937
  23         0.02369022
  24         0.00805634
  25        -0.00040691
  26        -0.00036603
  27         0.00061695
  28        -0.01512288
  29         0.01496670
  30        -0.13373679
  31        -0.33960522
  32         0.12947452
  33         0.08357701
  34         0.00158699
  35         0.74214717
  36         0.41433309
  37         0.00662632
  38        -0.00803376
  39        -0.00074521
  40         0.00068930
  41         0.00047228
  42        -0.01511594
  43         0.02473889
  44         0.11231106
  45        -0.51985433
  46        -0.00158474
  47         0.08908638
  48         0.00337370
  49         0.00376315
  50        -0.21154214
  51        -0.00800643
  52         0.00608960
  53         0.00024560
  54         0.00002239
  55        -0.01101689
  56        -0.00040140
  57         0.01496670
  58        -0.13373685
  59        -0.33960557
  60        -0.13236332
  61         0.07880685
  62         0.00455471
  63        -0.75640323
  64         0.38702965
  65         0.02368984
  66        -0.00805633
  67         0.00040649
  68         0.00036607
  69        -0.00061693
  70         0.01512290
  71        -0.01496669
  72         0.13373692
  73         0.33960558
  74         0.12947444
  75         0.08357719
  76         0.00158402
  77         0.74214706
  78         0.41433322
  79         0.00661941
  80         0.00803376
  81         0.00074435
  82        -0.00068966
  83        -0.00047228
  84         0.01511597
  85        -0.04639707
  86        -1.32279698
  87        -0.01020668
  88         0.00475581
  89         0.00030197
  90         0.04639698
  91         1.32279724
  92         0.01003092
  93         0.00512451
  94         0.00007199
  95         0.04639698
  96         1.32279799
  97        -0.01020669
  98         0.00475581
  99         0.00030172
 100        -0.04639709
 101        -1.32279718
 102         0.01003092
 103         0.00512453
 104         0.00007180
Sym=    27a  
Ene=     0.2453
Spin= Alpha
Occup=    0.00000
   1         0.00000000
   2         0.00000001
   3        -0.00000006
   4        -0.07304594
   5        -0.00133147
   6         0.00084641
   7         0.12735809
   8         0.00232070
   9        -0.00145503
  10         0.00000883
  11        -0.00044847
  12         0.00012657
  13         0.00042440
  14        -0.01178159
  15         0.00764237
  16        -0.16672587
  17        -0.42768098
  18         0.13159566
  19        -0.02949862
  20        -0.00270802
  21         0.97079717
  22        -0.21050416
  23        -0.01965840
  24        -0.00843637
  25         0.00060750
  26         0.00090827
  27        -0.01467622
  28         0.01614426
  29        -0.00764237
  30         0.16672582
  31         0.42768071
  32        -0.13046146
  33        -0.03427375
  34         0.00029025
  35        -0.96268176
  36        -0.24573403
  37         0.00239548
  38         0.00841148
  39         0.00066042
  40        -0.00126482
  41         0.01347706
  42         0.01714569
  43        -0.00000001
  44        -0.00000003
  45         0.00000010
  46         0.07304580
  47         0.00133123
  48        -0.00084101
  49        -0.12735835
  50        -0.00232098
  51         0.00146429
  52         0.00000881
  53        -0.00044833
  54         0.00012627
  55         0.00042439
  56        -0.01178157
  57         0.00764237
  58        -0.16672577
  59        -0.42768075
  60        -0.13159588
  61         0.02949860
  62         0.00270500
  63        -0.97079756
  64         0.21050430
  65         0.01966177
  66        -0.00843639
  67         0.00060724
  68         0.00090792
  69        -0.01467621
  70         0.01614428
  71        -0.00764236
  72         0.16672583
  73         0.42768077
  74         0.13046109
  75         0.03427411
  76        -0.00029872
  77         0.96268064
  78         0.24573391
  79        -0.00240866
  80         0.00841151
  81         0.00065923
  82        -0.00126470
  83         0.01347708
  84         0.01714571
  85         0.02226940
  86         1.38284854
  87         0.01215688
  88        -0.00869644
  89        -0.00047429
  90        -0.02226939
  91        -1.38284941
  92        -0.01183971
  93        -0.00913368
  94        -0.00020054
  95         0.02226937
  96         1.38284908
  97        -0.01215689
  98         0.00869644
  99         0.00047430
 100        -0.02226939
 101        -1.38284794
 102         0.01183969
 103         0.00913369
 104         0.00020006
Sym=    28a  
Ene=     0.3280
Spin= Alpha
Occup=    0.00000
   1        -0.00004190
   2         0.00013209
   3         0.00120899
   4        -0.00491795
   5         0.01517405
   6        -0.40637851
   7        -0.00432002
   8         0.01314719
   9        -0.35779650
  10         0.00008263
  11        -0.00002581
  12         0.00146775
  13         0.00005821
  14         0.00001819
  15         0.00002425
  16         0.00001886
  17        -0.00068658
  18         0.00416294
  19        -0.01322568
  20         0.35011861
  21         0.00547765
  22        -0.01845561
  23         0.48234611
  24         0.00085664
  25        -0.02006142
  26         0.00673161
  27         0.00001140
  28         0.00084667
  29         0.00002269
  30         0.00001334
  31        -0.00060833
  32        -0.00431322
  33         0.01322335
  34        -0.35011699
  35        -0.00624638
  36         0.01850459
  37        -0.48233558
  38         0.00006497
  39         0.01981472
  40         0.00747582
  41         0.00052187
  42        -0.00066344
  43        -0.00004214
  44         0.00013413
  45         0.00122127
  46         0.00491702
  47        -0.01517543
  48         0.40637901
  49         0.00432165
  50        -0.01314582
  51         0.35779742
  52         0.00008235
  53        -0.00002583
  54         0.00146779
  55         0.00005841
  56         0.00001794
  57         0.00002298
  58         0.00001322
  59        -0.00067620
  60        -0.00416184
  61         0.01322210
  62        -0.35011888
  63        -0.00547028
  64         0.01846433
  65        -0.48234650
  66         0.00085754
  67        -0.02006145
  68         0.00673153
  69         0.00001111
  70         0.00084686
  71         0.00002109
  72         0.00001005
  73        -0.00060216
  74         0.00431405
  75        -0.01322159
  76         0.35011692
  77         0.00623367
  78        -0.01850444
  79         0.48233510
  80         0.00006687
  81         0.01981468
  82         0.00747572
  83         0.00052210
  84        -0.00066400
  85        -0.00002867
  86         0.00006505
  87         0.00026710
  88        -0.00084831
  89         0.02219989
  90         0.00000522
  91        -0.00001182
  92        -0.00027164
  93         0.00084752
  94        -0.02219987
  95        -0.00003656
  96         0.00006691
  97        -0.00026735
  98         0.00084835
  99        -0.02219989
 100        -0.00001380
 101         0.00001976
 102         0.00027123
 103        -0.00084789
 104         0.02219985
Sym=    29a  
Ene=     0.3307
Spin= Alpha
Occup=    0.00000
   1        -0.05613178
   2         0.17727453
   3         1.62271627
   4         0.00273287
   5        -0.15342921
   6        -0.00549983
   7         0.00750875
   8        -0.42192486
   9        -0.01570062
  10        -0.01730535
  11        -0.00040629
  12         0.00097471
  13         0.00403910
  14         0.00015846
  15         0.02794616
  16         0.00794933
  17        -0.83371524
  18        -0.10232047
  19        -0.06509187
  20        -0.00147827
  21        -0.50099013
  22        -0.45532504
  23        -0.01143902
  24        -0.00500955
  25         0.00035931
  26         0.00013697
  27         0.00095405
  28         0.01226327
  29         0.02794618
  30         0.00794964
  31        -0.83371766
  32        -0.10456255
  33         0.06132185
  34         0.00384282
  35        -0.51685075
  36         0.43677694
  37         0.02307462
  38        -0.00499067
  39        -0.00059966
  40         0.00039755
  41         0.00183326
  42        -0.01215550
  43        -0.05613177
  44         0.17727401
  45         1.62271630
  46        -0.00273287
  47         0.15342865
  48         0.00550095
  49        -0.00750870
  50         0.42192414
  51         0.01570391
  52        -0.01730535
  53        -0.00040686
  54         0.00097487
  55         0.00403916
  56         0.00015849
  57         0.02794618
  58         0.00794962
  59        -0.83371770
  60         0.10231985
  61         0.06509169
  62         0.00147435
  63         0.50098958
  64         0.45532398
  65         0.01143034
  66        -0.00500944
  67         0.00035969
  68         0.00013769
  69         0.00095406
  70         0.01226329
  71         0.02794617
  72         0.00794936
  73        -0.83371520
  74         0.10456318
  75        -0.06132234
  76        -0.00383769
  77         0.51685146
  78        -0.43677871
  79        -0.02306309
  80        -0.00499068
  81        -0.00059965
  82         0.00039857
  83         0.00183332
  84        -0.01215545
  85        -0.02237558
  86         0.03050346
  87        -0.00262635
  88        -0.01722511
  89        -0.00063306
  90        -0.02237591
  91         0.03050461
  92        -0.00323684
  93         0.01711825
  94         0.00070089
  95        -0.02237588
  96         0.03050447
  97         0.00262629
  98         0.01722511
  99         0.00063289
 100        -0.02237556
 101         0.03050346
 102         0.00323691
 103        -0.01711826
 104        -0.00070037
Sym=    30a  
Ene=     0.4319
Spin= Alpha
Occup=    0.00000
   1        -0.00000001
   2         0.00000003
   3         0.00000043
   4         0.34611085
   5         0.00630677
   6        -0.00395679
   7         1.01848877
   8         0.01855851
   9        -0.01164048
  10         0.00002070
  11        -0.00105200
  12         0.00029655
  13         0.00099512
  14        -0.02762542
  15        -0.01856998
  16         0.03315466
  17         1.30830724
  18         0.08637914
  19        -0.04953633
  20        -0.00290534
  21         0.69105920
  22         0.86788652
  23         0.02430406
  24        -0.01540617
  25        -0.00121145
  26         0.00119961
  27         0.00221351
  28        -0.02293672
  29        -0.01856975
  30         0.03315341
  31         1.30829742
  32         0.08455985
  33         0.05265002
  34         0.00095586
  35         0.72148123
  36        -0.84216331
  37        -0.04045215
  38        -0.01544048
  39         0.00053748
  40         0.00070919
  41         0.00055669
  42         0.02305939
  43         0.00000001
  44        -0.00000004
  45        -0.00000029
  46         0.34610984
  47         0.00630685
  48        -0.00395967
  49         1.01849334
  50         0.01855885
  51        -0.01164684
  52        -0.00002071
  53         0.00105207
  54        -0.00029663
  55        -0.00099513
  56         0.02762581
  57         0.01856976
  58        -0.03315337
  59        -1.30829786
  60         0.08637763
  61        -0.04953555
  62        -0.00290505
  63         0.69106075
  64         0.86790201
  65         0.02429789
  66         0.01540630
  67         0.00121185
  68        -0.00119952
  69        -0.00221345
  70         0.02293655
  71         0.01856998
  72        -0.03315465
  73        -1.30830695
  74         0.08456126
  75         0.05265099
  76         0.00095287
  77         0.72147933
  78        -0.84214875
  79        -0.04043647
  80         0.01544042
  81        -0.00053717
  82        -0.00070821
  83        -0.00055670
  84        -0.02305955
  85         0.16454389
  86        -0.13539456
  87        -0.00955906
  88         0.02201722
  89         0.00094333
  90         0.16454371
  91        -0.13539975
  92        -0.00876982
  93        -0.02235109
  94        -0.00073549
  95        -0.16454380
  96         0.13539979
  97        -0.00955910
  98         0.02201716
  99         0.00094352
 100        -0.16454381
 101         0.13539454
 102        -0.00876977
 103        -0.02235116
 104        -0.00073535
Sym=    31a  
Ene=     0.4566
Spin= Alpha
Occup=    0.00000
   1         0.06944006
   2        -0.13632927
   3        -2.41506781
   4         0.00094470
   5        -0.05309541
   6        -0.00200139
   7        -0.00754975
   8         0.42440927
   9         0.01607473
  10         0.01966863
  11         0.00039080
  12        -0.00136399
  13         0.00210211
  14         0.00006096
  15        -0.01172566
  16         0.05321054
  17        -0.15977321
  18         0.08344177
  19         0.12142405
  20         0.00354962
  21         1.16282340
  22         1.17762346
  23         0.03021035
  24         0.01123794
  25         0.00099061
  26        -0.00166921
  27         0.01663519
  28         0.02543419
  29         0.01172578
  30        -0.05320986
  31         0.15977034
  32        -0.08770602
  33         0.11830481
  34         0.00552183
  35        -1.20395588
  36         1.13449698
  37         0.05727228
  38        -0.01127515
  39         0.00089786
  40         0.00113510
  41        -0.01842290
  42         0.02418811
  43        -0.06944021
  44         0.13632905
  45         2.41507388
  46         0.00094461
  47        -0.05309577
  48        -0.00200385
  49        -0.00754918
  50         0.42440919
  51         0.01607699
  52        -0.01966871
  53        -0.00039069
  54         0.00136425
  55        -0.00210200
  56        -0.00006090
  57         0.01172573
  58        -0.05320971
  59         0.15977197
  60         0.08344136
  61         0.12142400
  62         0.00355420
  63         1.16282552
  64         1.17762676
  65         0.03022245
  66        -0.01123791
  67        -0.00099033
  68         0.00166896
  69        -0.01663535
  70        -0.02543422
  71        -0.01172561
  72         0.05321031
  73        -0.15977619
  74        -0.08770614
  75         0.11830521
  76         0.00551796
  77        -1.20395385
  78         1.13449886
  79         0.05727085
  80         0.01127518
  81        -0.00089701
  82        -0.00113501
  83         0.01842275
  84        -0.02418817
  85        -0.21074025
  86         0.17947676
  87         0.01370005
  88        -0.00418078
  89        -0.00032362
  90         0.21073990
  91        -0.17947594
  92        -0.01354240
  93        -0.00467722
  94        -0.00001073
  95         0.21073975
  96        -0.17947484
  97         0.01369997
  98        -0.00418076
  99        -0.00032346
 100        -0.21074040
 101         0.17947601
 102        -0.01354248
 103        -0.00467723
 104        -0.00001147
Sym=    32a  
Ene=     0.4604
Spin= Alpha
Occup=    0.00000
   1         0.00000005
   2        -0.00000007
   3        -0.00000174
   4        -0.04426138
   5        -0.00080677
   6         0.00051176
   7         0.44874378
   8         0.00817666
   9        -0.00511479
  10         0.00003731
  11        -0.00189481
  12         0.00053464
  13         0.00179364
  14        -0.04979248
  15         0.03654569
  16        -0.15548117
  17        -2.08843738
  18        -0.15623739
  19         0.15903072
  20         0.00786350
  21        -0.05814465
  22         2.37359930
  23         0.08997072
  24        -0.00182355
  25         0.00052663
  26        -0.00009645
  27         0.00078781
  28         0.01525004
  29        -0.03654586
  30         0.15548114
  31         2.08844614
  32         0.15048004
  33         0.16461981
  34         0.00438030
  35        -0.02631060
  36         2.37417156
  37         0.08964260
  38         0.00180045
  39         0.00063198
  40        -0.00023224
  41        -0.00188300
  42         0.01515124
  43        -0.00000004
  44         0.00000009
  45         0.00000126
  46         0.04426352
  47         0.00080670
  48        -0.00051049
  49        -0.44873682
  50        -0.00817636
  51         0.00512607
  52         0.00003738
  53        -0.00189501
  54         0.00053611
  55         0.00179369
  56        -0.04979224
  57         0.03654587
  58        -0.15548121
  59        -2.08844578
  60         0.15623766
  61        -0.15903179
  62        -0.00786071
  63         0.05814951
  64        -2.37359025
  65        -0.09000380
  66        -0.00182333
  67         0.00052501
  68        -0.00009572
  69         0.00078778
  70         0.01525024
  71        -0.03654572
  72         0.15548122
  73         2.08843742
  74        -0.15047993
  75        -0.16461890
  76        -0.00437429
  77         0.02631278
  78        -2.37417566
  79        -0.08966518
  80         0.00180066
  81         0.00062999
  82        -0.00023222
  83        -0.00188299
  84         0.01515112
  85        -0.00543701
  86        -0.77395303
  87        -0.00134171
  88        -0.00321960
  89        -0.00010526
  90         0.00543837
  91         0.77395194
  92         0.00145527
  93        -0.00316882
  94        -0.00013705
  95        -0.00543811
  96        -0.77395218
  97         0.00134163
  98         0.00321978
  99         0.00010487
 100         0.00543675
 101         0.77395329
 102        -0.00145537
 103         0.00316865
 104         0.00013646
Sym=    33a  
Ene=     0.5741
Spin= Alpha
Occup=    0.00000
   1        -0.04277908
   2        -0.05245161
   3         1.49790596
   4         0.00220593
   5        -0.12399629
   6        -0.00468996
   7         0.01644079
   8        -0.92416970
   9        -0.03497073
  10        -0.05369892
  11        -0.00142542
  12         0.00244443
  13         0.02779955
  14         0.00104166
  15         0.10076425
  16         0.09229572
  17        -3.30173559
  18         0.15697453
  19         0.37073848
  20         0.01205724
  21        -1.38306604
  22         1.70785065
  23         0.08096047
  24        -0.00164091
  25        -0.00042131
  26         0.00195508
  27        -0.04150369
  28        -0.02369818
  29        -0.10076451
  30        -0.09229709
  31         3.30173831
  32        -0.17005903
  33         0.36477853
  34         0.01581044
  35         1.32142645
  36         1.75713164
  37         0.05004843
  38         0.00167414
  39        -0.00126124
  40        -0.00148032
  41         0.04310141
  42        -0.02065339
  43         0.04277916
  44         0.05245204
  45        -1.49791004
  46         0.00220576
  47        -0.12399557
  48        -0.00468741
  49         0.01643990
  50        -0.92417114
  51        -0.03497236
  52         0.05369915
  53         0.00142548
  54        -0.00244423
  55        -0.02779957
  56        -0.00104169
  57        -0.10076452
  58        -0.09229701
  59         3.30173821
  60         0.15697500
  61         0.37073897
  62         0.01203957
  63        -1.38306715
  64         1.70784883
  65         0.08099879
  66         0.00164094
  67         0.00042204
  68        -0.00195817
  69         0.04150367
  70         0.02369858
  71         0.10076426
  72         0.09229564
  73        -3.30173586
  74        -0.17005864
  75         0.36477985
  76         0.01578617
  77         1.32142774
  78         1.75712765
  79         0.05010298
  80        -0.00167382
  81         0.00126230
  82         0.00148260
  83        -0.04310126
  84         0.02065297
  85         0.13040927
  86        -0.79798701
  87         0.00856799
  88         0.03333866
  89         0.00115033
  90        -0.13041086
  91         0.79798869
  92        -0.00974810
  93         0.03300510
  94         0.00135773
  95        -0.13041110
  96         0.79798888
  97         0.00856787
  98         0.03333878
  99         0.00115093
 100         0.13040940
 101        -0.79798721
 102        -0.00974819
 103         0.03300494
 104         0.00135919
Sym=    34a  
Ene=     0.6032
Spin= Alpha
Occup=    0.00000
   1        -0.00000001
   2        -0.00000003
   3         0.00000037
   4        -0.38518162
   5        -0.00701838
   6         0.00439239
   7        -1.57799821
   8        -0.02875369
   9         0.01802742
  10        -0.00002012
  11         0.00102077
  12        -0.00028857
  13        -0.00096690
  14         0.02684166
  15         0.03443870
  16        -0.16355003
  17        -1.01590220
  18        -0.04283597
  19         0.15092779
  20         0.00621581
  21        -1.98472030
  22        -1.42429930
  23        -0.02955809
  24        -0.03963604
  25        -0.00169289
  26         0.00451343
  27        -0.03968219
  28        -0.03570825
  29        -0.03443922
  30         0.16354700
  31         1.01591261
  32         0.03743585
  33         0.15239485
  34         0.00529372
  35         2.03409934
  36        -1.35107722
  37        -0.07551672
  38         0.03968701
  39        -0.00091084
  40        -0.00377804
  41         0.04215039
  42        -0.03282129
  43         0.00000001
  44        -0.00000002
  45        -0.00000034
  46         0.38517902
  47         0.00701852
  48        -0.00439980
  49         1.57800294
  50         0.02875376
  51        -0.01804161
  52        -0.00002008
  53         0.00102117
  54        -0.00028818
  55        -0.00096693
  56         0.02684273
  57         0.03443916
  58        -0.16354697
  59        -1.01591094
  60         0.04283150
  61        -0.15093217
  62        -0.00621267
  63         1.98472742
  64         1.42430897
  65         0.02956392
  66        -0.03963559
  67        -0.00169450
  68         0.00451480
  69        -0.03968174
  70        -0.03570949
  71        -0.03443865
  72         0.16355014
  73         1.01590008
  74        -0.03744064
  75        -0.15239054
  76        -0.00529044
  77        -2.03409056
  78         1.35107054
  79         0.07550073
  80         0.03968723
  81        -0.00091095
  82        -0.00377966
  83         0.04215063
  84        -0.03281992
  85         0.32867407
  86        -0.50725737
  87        -0.01611116
  88         0.03503391
  89         0.00151396
  90        -0.32867961
  91         0.50726277
  92         0.01485507
  93         0.03559853
  94         0.00115726
  95         0.32867890
  96        -0.50726149
  97         0.01611150
  98        -0.03503407
  99        -0.00151499
 100        -0.32867460
 101         0.50725756
 102        -0.01485474
 103        -0.03559821
 104        -0.00115899
Sym=    35a  
Ene=     0.6285
Spin= Alpha
Occup=    0.00000
   1        -0.00894425
   2         0.07986957
   3         0.35074967
   4        -0.00227056
   5         0.12763061
   6         0.00483286
   7         0.00472708
   8        -0.26576559
   9        -0.01006258
  10        -0.03060728
  11        -0.00037192
  12         0.00295909
  13        -0.02522194
  14        -0.00088555
  15         0.10269381
  16         0.37463784
  17        -0.49839032
  18         0.05752488
  19        -0.31640376
  20        -0.01259048
  21        -0.11651159
  22         0.28584511
  23         0.01215324
  24        -0.12004001
  25        -0.00734730
  26         0.00813298
  27         0.03014734
  28        -0.11871120
  29         0.10269364
  30         0.37463813
  31        -0.49838521
  32         0.04623373
  33         0.31829398
  34         0.01145134
  35        -0.10626659
  36        -0.28990085
  37        -0.00965183
  38        -0.12021838
  39         0.00176353
  40         0.00557309
  41         0.02152175
  42         0.12075203
  43        -0.00894435
  44         0.07986910
  45         0.35074999
  46         0.00227050
  47        -0.12763109
  48        -0.00483566
  49        -0.00472701
  50         0.26576453
  51         0.01006397
  52        -0.03060714
  53        -0.00037359
  54         0.00295956
  55        -0.02522204
  56        -0.00088547
  57         0.10269366
  58         0.37463799
  59        -0.49838586
  60        -0.05752431
  61         0.31640534
  62         0.01257934
  63         0.11650978
  64        -0.28584205
  65        -0.01214745
  66        -0.12003961
  67        -0.00734731
  68         0.00813675
  69         0.03014745
  70        -0.11871108
  71         0.10269380
  72         0.37463803
  73        -0.49838985
  74        -0.04623442
  75        -0.31829328
  76        -0.01143653
  77         0.10626840
  78         0.28990417
  79         0.00964552
  80        -0.12021843
  81         0.00176048
  82         0.00557350
  83         0.02152177
  84         0.12075226
  85         0.68040439
  86        -0.63131025
  87        -0.07397813
  88         0.05326254
  89         0.00289641
  90         0.68040328
  91        -0.63130764
  92        -0.07203573
  93        -0.05592280
  94        -0.00123240
  95         0.68040356
  96        -0.63130792
  97         0.07397808
  98        -0.05326237
  99        -0.00289740
 100         0.68040424
 101        -0.63131007
 102         0.07203577
 103         0.05592295
 104         0.00123228
Sym=    36a  
Ene=     0.6383
Spin= Alpha
Occup=    0.00000
   1         0.00000001
   2        -0.00000000
   3        -0.00000027
   4        -0.09838219
   5        -0.00179297
   6         0.00113077
   7         0.22889492
   8         0.00417071
   9        -0.00261024
  10         0.00006748
  11        -0.00343033
  12         0.00096704
  13         0.00324645
  14        -0.09012421
  15        -0.07495590
  16        -0.33654034
  17         0.66572378
  18        -0.41059110
  19        -0.25366490
  20        -0.00453639
  21         0.57669224
  22         0.57866679
  23         0.01475214
  24         0.00447548
  25         0.00545755
  26        -0.00018044
  27        -0.04432601
  28         0.12839227
  29        -0.07495548
  30        -0.33654240
  31         0.66571377
  32        -0.41934642
  33         0.23853648
  34         0.01408746
  35         0.59687730
  36        -0.55726369
  37        -0.02824075
  38         0.00466912
  39        -0.00442431
  40         0.00260658
  41        -0.03497351
  42        -0.13125492
  43         0.00000001
  44         0.00000003
  45         0.00000003
  46        -0.09838621
  47        -0.00179320
  48         0.00113712
  49         0.22887871
  50         0.00417029
  51        -0.00260991
  52        -0.00006755
  53         0.00343107
  54        -0.00096819
  55        -0.00324647
  56         0.09012381
  57         0.07495547
  58         0.33654239
  59        -0.66571372
  60        -0.41059064
  61        -0.25366150
  62        -0.00454239
  63         0.57667045
  64         0.57865073
  65         0.01474797
  66        -0.00447466
  67        -0.00545790
  68         0.00018066
  69         0.04432654
  70        -0.12839189
  71         0.07495587
  72         0.33654026
  73        -0.66572358
  74        -0.41934685
  75         0.23853921
  76         0.01409859
  77         0.59689943
  78        -0.55727899
  79        -0.02824128
  80        -0.00466988
  81         0.00442167
  82        -0.00260733
  83         0.03497291
  84         0.13125528
  85        -0.56758397
  86         0.58694586
  87         0.05575204
  88        -0.02754136
  89        -0.00170864
  90        -0.56757934
  91         0.58693926
  92         0.05473609
  93         0.02955391
  94         0.00045177
  95         0.56757922
  96        -0.58693911
  97         0.05575174
  98        -0.02754084
  99        -0.00170921
 100         0.56758385
 101        -0.58694576
 102         0.05473633
 103         0.02955442
 104         0.00045148
Sym=    37a  
Ene=     0.6558
Spin= Alpha
Occup=    0.00000
   1        -0.00000010
   2        -0.00000058
   3         0.00000437
   4         0.00099971
   5        -0.00307083
   6         0.08172704
   7         0.00128713
   8        -0.00401574
   9         0.10674992
  10        -0.00188473
  11         0.00049834
  12        -0.02870317
  13        -0.00107482
  14        -0.00036201
  15         0.00000405
  16         0.00002985
  17        -0.00002573
  18         0.00885772
  19        -0.02746162
  20         0.73043632
  21        -0.00949265
  22         0.02939132
  23        -0.78261664
  24        -0.00390039
  25         0.00712054
  26        -0.05755259
  27        -0.00207702
  28        -0.00097195
  29         0.00000457
  30         0.00002177
  31        -0.00003621
  32         0.00885819
  33        -0.02751610
  34         0.73043526
  35        -0.00948515
  36         0.02947921
  37        -0.78261483
  38         0.00365944
  39         0.00511907
  40         0.05778063
  41         0.00223813
  42         0.00051397
  43         0.00000048
  44         0.00000162
  45        -0.00001026
  46         0.00099645
  47        -0.00306953
  48         0.08172693
  49         0.00128854
  50        -0.00401815
  51         0.10675008
  52         0.00188526
  53        -0.00049824
  54         0.02870321
  55         0.00107488
  56         0.00036438
  57        -0.00000192
  58        -0.00001762
  59        -0.00000155
  60         0.00884646
  61        -0.02745978
  62         0.73043750
  63        -0.00947156
  64         0.02938577
  65        -0.78261848
  66         0.00390482
  67        -0.00712038
  68         0.05755214
  69         0.00207999
  70         0.00097347
  71        -0.00000398
  72        -0.00001898
  73         0.00005388
  74         0.00887160
  75        -0.02750958
  76         0.73043435
  77        -0.00950963
  78         0.02947132
  79        -0.78261342
  80        -0.00366398
  81        -0.00511917
  82        -0.05778022
  83        -0.00224159
  84        -0.00051415
  85         0.00001505
  86        -0.00001356
  87         0.00023333
  88        -0.00073519
  89         0.01954679
  90         0.00002766
  91        -0.00003437
  92         0.00023277
  93        -0.00073873
  94         0.01954672
  95        -0.00001838
  96         0.00001876
  97         0.00023260
  98        -0.00073471
  99         0.01954688
 100        -0.00003029
 101         0.00003243
 102         0.00023390
 103        -0.00073785
 104         0.01954668
Sym=    38a  
Ene=     0.6978
Spin= Alpha
Occup=    0.00000
   1        -0.00000001
   2        -0.00000004
   3         0.00000000
   4         0.30601464
   5         0.00557627
   6        -0.00350122
   7         0.30265596
   8         0.00551497
   9        -0.00346165
  10        -0.00001602
  11         0.00081851
  12        -0.00022948
  13        -0.00077416
  14         0.02149236
  15        -0.14919924
  16        -0.49241007
  17         0.92721721
  18         0.02937696
  19         0.49746840
  20         0.01833363
  21         0.32221278
  22        -0.42444379
  23        -0.01982070
  24         0.12631298
  25         0.00352811
  26        -0.00860830
  27         0.00205798
  28         0.02405518
  29        -0.14919948
  30        -0.49240973
  31         0.92722495
  32         0.04705087
  33        -0.49607278
  34        -0.01924055
  35         0.30691461
  36         0.43590423
  37         0.01266367
  38         0.12634846
  39         0.00170149
  40        -0.00810275
  41         0.00379011
  42        -0.02403394
  43        -0.00000001
  44        -0.00000003
  45         0.00000028
  46         0.30601516
  47         0.00557567
  48        -0.00348874
  49         0.30266121
  50         0.00551504
  51        -0.00345987
  52         0.00001606
  53        -0.00081807
  54         0.00023025
  55         0.00077418
  56        -0.02149217
  57         0.14919945
  58         0.49240962
  59        -0.92722458
  60         0.02937662
  61         0.49746572
  62         0.01835419
  63         0.32221978
  64        -0.42443907
  65        -0.01986699
  66        -0.12631302
  67        -0.00353028
  68         0.00861058
  69        -0.00205817
  70        -0.02405531
  71         0.14919918
  72         0.49240978
  73        -0.92721739
  74         0.04705153
  75        -0.49607455
  76        -0.01923848
  77         0.30690730
  78         0.43590561
  79         0.01268625
  80        -0.12634836
  81        -0.00170225
  82         0.00810035
  83        -0.00378991
  84         0.02403381
  85        -0.45707246
  86         0.47655800
  87         0.05524538
  88        -0.02953034
  89        -0.00177874
  90        -0.45707406
  91         0.47656081
  92         0.05415932
  93         0.03152413
  94         0.00052898
  95         0.45707411
  96        -0.47656068
  97         0.05524544
  98        -0.02953056
  99        -0.00178019
 100         0.45707270
 101        -0.47655843
 102         0.05415930
 103         0.03152381
 104         0.00053016
Sym=    39a  
Ene=     0.7038
Spin= Alpha
Occup=    0.00000
   1         0.00000273
   2         0.00001085
   3         0.00000217
   4        -0.00001202
   5        -0.00001796
   6        -0.00000054
   7        -0.00001889
   8        -0.00003755
   9        -0.00000118
  10        -0.00076685
  11         0.03841242
  12         0.00071683
  13         0.00049554
  14        -0.00143704
  15         0.00002682
  16         0.00011343
  17        -0.00011251
  18        -0.00858030
  19         0.02676562
  20        -0.71233593
  21         0.01005158
  22        -0.03147283
  23         0.83781464
  24         0.00594903
  25        -0.05736850
  26         0.07289485
  27         0.00203467
  28         0.00304420
  29         0.00002195
  30         0.00011389
  31        -0.00010774
  32        -0.00860379
  33         0.02687169
  34        -0.71233189
  35         0.01014282
  36        -0.03166367
  37         0.83780703
  38        -0.00374233
  39        -0.05480179
  40        -0.07498555
  41        -0.00349314
  42         0.00115112
  43        -0.00000026
  44        -0.00000120
  45         0.00001684
  46         0.00001004
  47         0.00001604
  48         0.00000048
  49         0.00001407
  50         0.00003954
  51         0.00000131
  52        -0.00076565
  53         0.03841256
  54         0.00071687
  55         0.00049285
  56        -0.00143781
  57         0.00002115
  58         0.00010067
  59        -0.00009711
  60         0.00859502
  61        -0.02674555
  62         0.71233672
  63        -0.01007128
  64         0.03146393
  65        -0.83781538
  66         0.00595823
  67        -0.05736825
  68         0.07289392
  69         0.00204330
  70         0.00304747
  71         0.00002445
  72         0.00012006
  73        -0.00011152
  74         0.00860123
  75        -0.02683011
  76         0.71233333
  77        -0.01015847
  78         0.03162425
  79        -0.83780774
  80        -0.00374808
  81        -0.05480191
  82        -0.07498479
  83        -0.00350199
  84         0.00114927
  85        -0.00001009
  86         0.00001340
  87         0.00006797
  88        -0.00019879
  89         0.00542782
  90        -0.00005279
  91         0.00005651
  92         0.00007090
  93        -0.00020436
  94         0.00542758
  95        -0.00003484
  96         0.00004461
  97        -0.00006957
  98         0.00020296
  99        -0.00542764
 100        -0.00003921
 101         0.00004984
 102        -0.00007165
 103         0.00020666
 104        -0.00542748
Sym=    40a  
Ene=     0.7074
Spin= Alpha
Occup=    0.00000
   1         0.02211026
   2         0.06144850
   3        -0.06548355
   4         0.00277684
   5        -0.15608281
   6        -0.00589295
   7         0.00305138
   8        -0.17151291
   9        -0.00649050
  10        -0.03437476
  11        -0.00109904
  12         0.00091974
  13         0.03472205
  14         0.00127672
  15         0.19685279
  16         0.97060085
  17        -0.93572373
  18         0.17969757
  19        -0.21124281
  20        -0.01002044
  21        -0.20639466
  22         0.48329156
  23         0.02054623
  24        -0.00571455
  25         0.00332199
  26         0.00369589
  27        -0.10677155
  28         0.05696440
  29         0.19685282
  30         0.97060100
  31        -0.93572626
  32         0.17206788
  33         0.21764566
  34         0.00618362
  35        -0.18907164
  36        -0.49049148
  37        -0.01624474
  38        -0.00562239
  39        -0.00130660
  40         0.00501546
  41        -0.10239580
  42        -0.06449073
  43         0.02211026
  44         0.06144805
  45        -0.06548484
  46        -0.00277677
  47         0.15608295
  48         0.00589220
  49        -0.00305137
  50         0.17151323
  51         0.00649102
  52        -0.03437477
  53        -0.00109980
  54         0.00091959
  55         0.03472195
  56         0.00127673
  57         0.19685284
  58         0.97060117
  59        -0.93572595
  60        -0.17969763
  61         0.21124308
  62         0.01002105
  63         0.20639425
  64        -0.48329438
  65        -0.02054554
  66        -0.00571444
  67         0.00332235
  68         0.00369704
  69        -0.10677135
  70         0.05696443
  71         0.19685285
  72         0.97060091
  73        -0.93572439
  74        -0.17206782
  75        -0.21764547
  76        -0.00618960
  77         0.18907230
  78         0.49048886
  79         0.01625030
  80        -0.00562241
  81        -0.00130286
  82         0.00501829
  83        -0.10239581
  84        -0.06449082
  85        -0.38935409
  86         0.45500634
  87         0.04948655
  88         0.00362452
  89        -0.00046304
  90        -0.38935393
  91         0.45500553
  92         0.04958342
  93        -0.00181940
  94        -0.00066685
  95        -0.38935403
  96         0.45500577
  97        -0.04948656
  98        -0.00362449
  99         0.00046261
 100        -0.38935377
 101         0.45500588
 102        -0.04958336
 103         0.00181937
 104         0.00066855
Sym=    41a  
Ene=     0.7496
Spin= Alpha
Occup=    0.00000
   1        -0.00000307
   2        -0.00001853
   3         0.00005022
   4        -0.00139539
   5         0.00433784
   6        -0.11483229
   7        -0.00128052
   8         0.00392787
   9        -0.10502906
  10         0.00345890
  11        -0.00091566
  12         0.05275670
  13         0.00197902
  14         0.00067713
  15         0.00000941
  16         0.00004718
  17        -0.00015680
  18        -0.00927851
  19         0.02893771
  20        -0.76954094
  21         0.01430794
  22        -0.04470161
  23         1.18950997
  24        -0.00245282
  25        -0.02916273
  26        -0.04706688
  27        -0.00212330
  28         0.00052206
  29         0.00000770
  30         0.00004978
  31         0.00000607
  32         0.00932376
  33        -0.02899587
  34         0.76953719
  35        -0.01436016
  36         0.04486190
  37        -1.18950219
  38        -0.00364768
  39         0.03077731
  40        -0.04594769
  41        -0.00137269
  42        -0.00171220
  43        -0.00000279
  44        -0.00002217
  45         0.00005909
  46         0.00138713
  47        -0.00434990
  48         0.11483173
  49         0.00127525
  50        -0.00393173
  51         0.10502870
  52         0.00345722
  53        -0.00091565
  54         0.05275668
  55         0.00198238
  56         0.00067942
  57         0.00000782
  58         0.00004710
  59        -0.00008039
  60         0.00926203
  61        -0.02897161
  62         0.76953898
  63        -0.01430022
  64         0.04478687
  65        -1.18950595
  66        -0.00245122
  67        -0.02916262
  68        -0.04706661
  69        -0.00213322
  70         0.00052159
  71         0.00000134
  72         0.00001525
  73        -0.00000801
  74        -0.00932671
  75         0.02898090
  76        -0.76953879
  77         0.01437553
  78        -0.04478535
  79         1.18950610
  80        -0.00364506
  81         0.03077740
  82        -0.04594822
  83        -0.00136443
  84        -0.00170815
  85        -0.00000237
  86        -0.00001593
  87        -0.00018207
  88         0.00056442
  89        -0.01504808
  90        -0.00000946
  91         0.00004900
  92         0.00018568
  93        -0.00056859
  94         0.01504789
  95        -0.00002242
  96         0.00001910
  97         0.00017836
  98        -0.00056414
  99         0.01504815
 100        -0.00000614
 101         0.00001244
 102        -0.00018309
 103         0.00056697
 104        -0.01504797
Sym=    42a  
Ene=     0.7694
Spin= Alpha
Occup=    0.00000
   1         0.07051905
   2         0.39470465
   3        -1.35649263
   4         0.01044949
   5        -0.58741121
   6        -0.02223906
   7        -0.01051420
   8         0.59104824
   9         0.02236715
  10         0.09698364
  11         0.00279824
  12        -0.00361732
  13        -0.07111806
  14        -0.00263452
  15        -0.04236901
  16        -0.32287297
  17         0.74060771
  18        -0.38353041
  19        -0.35667171
  20        -0.00880103
  21         0.56946944
  22         0.64914126
  23         0.01757283
  24        -0.06271310
  25         0.00322003
  26        -0.00144435
  27         0.09788218
  28         0.15205350
  29        -0.04236626
  30        -0.32285325
  31         0.74062988
  32        -0.39595867
  33         0.34245217
  34         0.01771348
  35         0.59217444
  36        -0.62790697
  37        -0.03085332
  38        -0.06248905
  39        -0.00806681
  40         0.00174207
  41         0.10855750
  42        -0.14452519
  43         0.07051785
  44         0.39469660
  45        -1.35645767
  46        -0.01044913
  47         0.58739518
  48         0.02224058
  49         0.01051408
  50        -0.59103921
  51        -0.02237024
  52         0.09698122
  53         0.00280100
  54        -0.00361787
  55        -0.07111539
  56        -0.00263455
  57        -0.04236623
  58        -0.32285320
  59         0.74062976
  60         0.38352304
  61         0.35665493
  62         0.00882196
  63        -0.56945942
  64        -0.64907290
  65        -0.01760293
  66        -0.06271138
  67         0.00321943
  68        -0.00144523
  69         0.09787387
  70         0.15205523
  71        -0.04236901
  72        -0.32287295
  73         0.74060764
  74         0.39596669
  75        -0.34246726
  76        -0.01773533
  77        -0.59218676
  78         0.62797273
  79         0.03088677
  80        -0.06249097
  81        -0.00806430
  82         0.00174133
  83         0.10856562
  84        -0.14452302
  85        -0.01497238
  86         0.01068993
  87        -0.00059494
  88        -0.00754010
  89        -0.00027629
  90        -0.01498850
  91         0.01072784
  92        -0.00085910
  93         0.00751443
  94         0.00029476
  95        -0.01498847
  96         0.01072775
  97         0.00059129
  98         0.00754093
  99         0.00027602
 100        -0.01497243
 101         0.01068997
 102         0.00086273
 103        -0.00751350
 104        -0.00029389
Sym=    43a  
Ene=     0.7730
Spin= Alpha
Occup=    0.00000
   1         0.02104456
   2         0.16717909
   3        -0.71984219
   4         0.00639257
   5        -0.35935210
   6        -0.01359673
   7        -0.00293282
   8         0.16486664
   9         0.00624396
  10         0.05018292
  11         0.00179127
  12        -0.00066592
  13        -0.06852009
  14        -0.00250599
  15        -0.05821680
  16        -0.44614557
  17        -0.64351779
  18        -0.12213297
  19        -0.38964953
  20        -0.01321372
  21         0.09843653
  22         1.68538834
  23         0.06225777
  24        -0.04708161
  25        -0.00546024
  26        -0.00426700
  27         0.21122341
  28        -0.05103579
  29         0.05821859
  30         0.44615907
  31         0.64348663
  32         0.13592823
  33        -0.38496336
  34        -0.01610782
  35        -0.15834064
  36         1.68073850
  37         0.06510603
  38         0.04717155
  39         0.00100416
  40         0.00551803
  41        -0.20700621
  42        -0.06616595
  43        -0.02104730
  44        -0.16719491
  45         0.71989614
  46         0.00639294
  47        -0.35937589
  48        -0.01360229
  49        -0.00293335
  50         0.16489066
  51         0.00624198
  52        -0.05018698
  53        -0.00179132
  54         0.00066407
  55         0.06852292
  56         0.00250606
  57         0.05821851
  58         0.44615880
  59         0.64348716
  60        -0.12214856
  61        -0.38966313
  62        -0.01323502
  63         0.09845972
  64         1.68541290
  65         0.06230537
  66         0.04708476
  67         0.00546074
  68         0.00427298
  69        -0.21122739
  70         0.05102994
  71        -0.05821686
  72        -0.44614583
  73        -0.64351749
  74         0.13591281
  75        -0.38495129
  76        -0.01606021
  77        -0.15831728
  78         1.68071541
  79         0.06504477
  80        -0.04716893
  81        -0.00100749
  82        -0.00552117
  83         0.20700143
  84         0.06617163
  85         0.41971980
  86        -1.01474809
  87        -0.09727916
  88         0.02717954
  89         0.00219866
  90        -0.41971885
  91         1.01474829
  92         0.09624962
  93         0.03070551
  94        -0.00000851
  95        -0.41971900
  96         1.01474854
  97        -0.09727938
  98         0.02717933
  99         0.00219746
 100         0.41971981
 101        -1.01474820
 102         0.09624941
 103         0.03070583
 104        -0.00000986
Sym=    44a  
Ene=     0.8008
Spin= Alpha
Occup=    0.00000
   1         0.00000412
   2         0.00001737
   3        -0.00010346
   4         0.00000355
   5        -0.00001792
   6        -0.00000070
   7         0.00000257
   8         0.00003562
   9         0.00000131
  10         0.00082530
  11        -0.04156444
  12        -0.00077545
  13        -0.00053378
  14         0.00155511
  15        -0.00000607
  16        -0.00003901
  17         0.00006431
  18         0.00945772
  19        -0.02941892
  20         0.78226265
  21        -0.01550924
  22         0.04850402
  23        -1.28876400
  24         0.00252319
  25         0.03281197
  26         0.04937593
  27         0.00226376
  28        -0.00064320
  29         0.00000319
  30         0.00003022
  31        -0.00006695
  32        -0.00945834
  33         0.02942843
  34        -0.78226196
  35         0.01551332
  36        -0.04844268
  37         1.28876604
  38         0.00387756
  39        -0.03450439
  40         0.04811946
  41         0.00138390
  42         0.00188086
  43        -0.00000717
  44        -0.00002992
  45         0.00016171
  46         0.00000438
  47        -0.00003968
  48        -0.00000154
  49        -0.00000602
  50         0.00006926
  51         0.00000266
  52        -0.00082896
  53         0.04156439
  54         0.00077565
  55         0.00053518
  56        -0.00155661
  57         0.00000376
  58         0.00002956
  59        -0.00002997
  60         0.00945375
  61        -0.02943169
  62         0.78226181
  63        -0.01552780
  64         0.04854162
  65        -1.28876198
  66        -0.00252651
  67        -0.03281231
  68        -0.04937548
  69        -0.00226944
  70         0.00063513
  71        -0.00000399
  72        -0.00003463
  73         0.00002828
  74        -0.00948210
  75         0.02942064
  76        -0.78226218
  77         0.01558855
  78        -0.04842074
  79         1.28876600
  80        -0.00387633
  81         0.03450468
  82        -0.04811948
  83        -0.00138545
  84        -0.00187310
  85         0.00005963
  86        -0.00006315
  87        -0.00009078
  88         0.00026561
  89        -0.00689030
  90        -0.00005602
  91         0.00006977
  92         0.00009180
  93        -0.00025286
  94         0.00689076
  95        -0.00004725
  96         0.00006258
  97        -0.00008962
  98         0.00026493
  99        -0.00689033
 100         0.00005685
 101        -0.00009781
 102         0.00009421
 103        -0.00025267
 104         0.00689076
Sym=    45a  
Ene=     0.8486
Spin= Alpha
Occup=    0.00000
   1         0.00000000
   2        -0.00000001
   3         0.00000005
   4        -0.13410722
   5        -0.00244371
   6         0.00153399
   7        -0.43921719
   8        -0.00800295
   9         0.00501270
  10         0.00004672
  11        -0.00236614
  12         0.00066979
  13         0.00223916
  14        -0.06215791
  15        -0.01553065
  16         0.00729084
  17         0.73291585
  18        -0.69157538
  19         0.14467137
  20         0.01379033
  21         1.33738377
  22        -1.54036902
  23        -0.07408285
  24         0.00465293
  25         0.00313819
  26         0.00233901
  27        -0.08711159
  28         0.05298471
  29         0.01553022
  30        -0.00729277
  31        -0.73291067
  32         0.68598248
  33         0.16977025
  34        -0.00189312
  35        -1.28173102
  36        -1.58809006
  37        -0.04427665
  38        -0.00473647
  39         0.00112800
  40        -0.00353967
  41         0.08307349
  42         0.05912186
  43         0.00000000
  44         0.00000001
  45        -0.00000002
  46         0.13410733
  47         0.00244373
  48        -0.00153337
  49         0.43921967
  50         0.00800303
  51        -0.00501396
  52         0.00004671
  53        -0.00236706
  54         0.00066917
  55         0.00223912
  56        -0.06215801
  57        -0.01553029
  58         0.00729243
  59         0.73291081
  60         0.69157615
  61        -0.14467117
  62        -0.01378988
  63        -1.33738361
  64         1.54036942
  65         0.07410313
  66         0.00465270
  67         0.00314131
  68         0.00233983
  69        -0.08711160
  70         0.05298496
  71         0.01553061
  72        -0.00729102
  73        -0.73291539
  74        -0.68598149
  75        -0.16977112
  76         0.00191354
  77         1.28173068
  78         1.58808949
  79         0.04424982
  80        -0.00473667
  81         0.00112632
  82        -0.00354016
  83         0.08307335
  84         0.05912154
  85        -0.35218395
  86         1.32559760
  87         0.10648195
  88        -0.08603286
  89        -0.00452172
  90         0.35218396
  91        -1.32559926
  92        -0.10335316
  93        -0.08985622
  94        -0.00213091
  95        -0.35218390
  96         1.32559906
  97        -0.10648207
  98         0.08603287
  99         0.00452410
 100         0.35218389
 101        -1.32559757
 102         0.10335299
 103         0.08985612
 104         0.00213056
Sym=    46a  
Ene=     0.9093
Spin= Alpha
Occup=    0.00000
   1        -0.00000000
   2        -0.00000001
   3         0.00000007
   4        -0.00365604
   5        -0.00006614
   6         0.00002913
   7        -0.10752350
   8        -0.00195930
   9         0.00123014
  10        -0.00000766
  11         0.00037451
  12        -0.00010975
  13        -0.00035377
  14         0.00981661
  15         0.23506752
  16         1.12534625
  17        -1.99265557
  18        -0.40934797
  19         0.27273334
  20         0.01519701
  21         1.17401500
  22        -0.84641353
  23        -0.04602529
  24        -0.01382973
  25         0.00334148
  26         0.00140670
  27        -0.04042664
  28         0.08322272
  29         0.23506734
  30         1.12534554
  31        -1.99266550
  32        -0.39938282
  33        -0.28746163
  34        -0.00599407
  35         1.14313990
  36         0.88862199
  37         0.01962573
  38        -0.01370134
  39        -0.00309544
  40         0.00323743
  41        -0.03433257
  42        -0.08589606
  43         0.00000000
  44        -0.00000000
  45        -0.00000006
  46        -0.00365816
  47        -0.00006573
  48         0.00001748
  49        -0.10752762
  50        -0.00195956
  51         0.00123470
  52         0.00000762
  53        -0.00037419
  54         0.00010930
  55         0.00035374
  56        -0.00981629
  57        -0.23506734
  58        -1.12534558
  59         1.99266554
  60        -0.40934824
  61         0.27272674
  62         0.01519759
  63         1.17400486
  64        -0.84640368
  65        -0.04601226
  66         0.01382893
  67        -0.00333968
  68        -0.00140680
  69         0.04042520
  70        -0.08322309
  71        -0.23506753
  72        -1.12534624
  73         1.99265562
  74        -0.39938218
  75        -0.28746876
  76        -0.00597882
  77         1.14314936
  78         0.88863434
  79         0.01958182
  80         0.01370204
  81         0.00309142
  82        -0.00323949
  83         0.03433393
  84         0.08589601
  85         0.27018016
  86         0.97191450
  87         0.12324987
  88        -0.04824764
  89        -0.00331012
  90         0.27017874
  91         0.97190939
  92         0.12145341
  93         0.05270696
  94         0.00051113
  95        -0.27017872
  96        -0.97190960
  97         0.12324934
  98        -0.04824808
  99        -0.00330832
 100        -0.27018019
 101        -0.97191435
 102         0.12145393
 103         0.05270678
 104         0.00050681
Sym=    47a  
Ene=     0.9318
Spin= Alpha
Occup=    0.00000
   1         0.00000005
   2         0.00000032
   3        -0.00000086
   4        -0.34516089
   5        -0.00628970
   6         0.00394792
   7        -0.45301354
   8        -0.00825447
   9         0.00517833
  10         0.00003783
  11        -0.00192680
  12         0.00054011
  13         0.00181994
  14        -0.05052623
  15        -0.02233409
  16        -0.10654908
  17        -0.97961023
  18        -0.14741301
  19        -0.73955123
  20        -0.02602141
  21        -1.09771187
  22         1.04202415
  23         0.05244315
  24         0.06569107
  25         0.00174885
  26        -0.01016070
  27         0.13868418
  28         0.05408031
  29         0.02233562
  30         0.10655678
  31         0.97959756
  32         0.17361776
  33        -0.73370397
  34        -0.02972625
  35         1.05995180
  36         1.08134618
  37         0.02788721
  38        -0.06576449
  39         0.00200754
  40         0.00911010
  41        -0.14221920
  42         0.04405954
  43        -0.00000004
  44        -0.00000019
  45         0.00000076
  46         0.34516062
  47         0.00629021
  48        -0.00397112
  49         0.45301571
  50         0.00825492
  51        -0.00517562
  52         0.00003806
  53        -0.00192737
  54         0.00054494
  55         0.00182010
  56        -0.05052633
  57        -0.02233552
  58        -0.10655622
  59        -0.97959911
  60         0.14740926
  61         0.73955506
  62         0.02602913
  63         1.09772649
  64        -1.04203400
  65        -0.05246376
  66         0.06569135
  67         0.00173543
  68        -0.01015651
  69         0.13868443
  70         0.05408019
  71         0.02233404
  72         0.10654867
  73         0.97961113
  74        -0.17362012
  75         0.73370106
  76         0.02971166
  77        -1.05994088
  78        -1.08133814
  79        -0.02786751
  80        -0.06576488
  81         0.00199323
  82         0.00910558
  83        -0.14221948
  84         0.04406052
  85        -0.22436464
  86        -0.47779847
  87        -0.05421554
  88        -0.05601679
  89        -0.00145340
  90         0.22436872
  91         0.47780697
  92         0.05617371
  93        -0.05400489
  94        -0.00271456
  95        -0.22436872
  96        -0.47780769
  97         0.05421657
  98         0.05601651
  99         0.00144795
 100         0.22436481
 101         0.47779953
 102        -0.05617286
 103         0.05400548
 104         0.00270894
Sym=    48a  
Ene=     0.9475
Spin= Alpha
Occup=    0.00000
   1        -0.07650724
   2        -0.47394247
   3         1.32799611
   4        -0.00618844
   5         0.34786636
   6         0.01316501
   7         0.00731485
   8        -0.41121299
   9        -0.01556181
  10        -0.08813227
  11        -0.00168801
  12         0.00632751
  13        -0.01507203
  14        -0.00047679
  15         0.04339462
  16         0.34458269
  17        -0.66924542
  18         0.70941744
  19        -0.32570543
  20        -0.02083065
  21        -1.69632937
  22         0.80077363
  23         0.05062240
  24         0.06007084
  25        -0.00286424
  26        -0.00530894
  27         0.06548628
  28        -0.08859208
  29        -0.04339459
  30        -0.34458303
  31         0.66924747
  32        -0.69737390
  33        -0.35133732
  34        -0.00478732
  35         1.66675008
  36         0.86204907
  37         0.01228904
  38        -0.05993522
  39        -0.00405462
  40         0.00725688
  41        -0.05894493
  42        -0.09298480
  43         0.07650738
  44         0.47394356
  45        -1.32800083
  46        -0.00618811
  47         0.34786875
  48         0.01316467
  49         0.00731539
  50        -0.41121515
  51        -0.01556462
  52         0.08813256
  53         0.00168866
  54        -0.00632826
  55         0.01507165
  56         0.00047668
  57        -0.04339464
  58        -0.34458325
  59         0.66924661
  60         0.70941804
  61        -0.32570390
  62        -0.02082826
  63        -1.69632906
  64         0.80077111
  65         0.05062082
  66        -0.06007090
  67         0.00286169
  68         0.00531277
  69        -0.06548534
  70         0.08859309
  71         0.04339464
  72         0.34458277
  73        -0.66924423
  74        -0.69737355
  75        -0.35133758
  76        -0.00478092
  77         1.66674767
  78         0.86204999
  79         0.01227201
  80         0.05993450
  81         0.00404915
  82        -0.00726170
  83         0.05894524
  84         0.09298425
  85        -0.08601820
  86        -0.77315125
  87        -0.07731390
  88         0.06551646
  89         0.00339755
  90         0.08601817
  91         0.77315113
  92         0.07493350
  93         0.06829032
  94         0.00166782
  95         0.08601789
  96         0.77315056
  97        -0.07731373
  98         0.06551663
  99         0.00339605
 100        -0.08601795
 101        -0.77315077
 102         0.07493352
 103         0.06829046
 104         0.00166424
Sym=    49a  
Ene=     0.9766
Spin= Alpha
Occup=    0.00000
   1         0.02153681
   2         0.17684298
   3         0.05103595
   4        -0.00459933
   5         0.25854707
   6         0.00977979
   7         0.00525901
   8        -0.29563403
   9        -0.01118946
  10         0.01579869
  11         0.00020709
  12        -0.00147714
  13         0.01167260
  14         0.00040857
  15         0.20441593
  16         0.88559952
  17        -1.91783232
  18        -0.56597169
  19         0.17503985
  20         0.01342568
  21         0.94456605
  22        -0.54355892
  23        -0.03185780
  24         0.04428471
  25         0.00552307
  26        -0.00053876
  27        -0.09222432
  28         0.09244120
  29         0.20441546
  30         0.88559727
  31        -1.91782857
  32        -0.55937969
  33        -0.19554398
  34        -0.00060251
  35         0.92462301
  36         0.57761601
  37         0.01057977
  38         0.04442786
  39        -0.00175669
  40         0.00151594
  41        -0.08533157
  42        -0.09890377
  43         0.02153680
  44         0.17684306
  45         0.05103447
  46         0.00459921
  47        -0.25854651
  48        -0.00978729
  49        -0.00525883
  50         0.29563337
  51         0.01119497
  52         0.01579898
  53         0.00020743
  54        -0.00147595
  55         0.01167257
  56         0.00040857
  57         0.20441547
  58         0.88559732
  59        -1.91782864
  60         0.56597204
  61        -0.17504002
  62        -0.01342202
  63        -0.94456789
  64         0.54356073
  65         0.03183932
  66         0.04428494
  67         0.00551805
  68        -0.00053501
  69        -0.09222425
  70         0.09244162
  71         0.20441591
  72         0.88559942
  73        -1.91783231
  74         0.55937924
  75         0.19554431
  76         0.00059193
  77        -0.92462091
  78        -0.57761607
  79        -0.01054691
  80         0.04442791
  81        -0.00176031
  82         0.00151371
  83        -0.08533171
  84        -0.09890345
  85         0.23999691
  86         0.81363823
  87         0.13239490
  88        -0.06418796
  89        -0.00401348
  90         0.23999784
  91         0.81363784
  92         0.13002602
  93         0.06896926
  94         0.00102697
  95         0.23999782
  96         0.81363808
  97        -0.13239484
  98         0.06418818
  99         0.00400876
 100         0.23999690
 101         0.81363795
 102        -0.13002609
 103        -0.06896936
 104        -0.00102335
Sym=    50a  
Ene=     1.0723
Spin= Alpha
Occup=    0.00000
   1         0.00000948
   2        -0.00003580
   3        -0.00029535
   4         0.00370070
   5        -0.01146353
   6         0.29896015
   7        -0.00297553
   8         0.00953299
   9        -0.23572178
  10         0.00478657
  11        -0.00127648
  12         0.07352645
  13         0.00275290
  14         0.00095105
  15         0.00016090
  16         0.00072940
  17        -0.00023697
  18         0.00102259
  19        -0.00287435
  20         0.07875048
  21         0.00011900
  22         0.00066283
  23        -0.03224456
  24         0.01895820
  25        -0.28711706
  26         0.19913043
  27         0.00407466
  28         0.01316562
  29        -0.00010275
  30        -0.00045780
  31        -0.00031669
  32         0.00089278
  33        -0.00277541
  34         0.07875589
  35        -0.00133712
  36         0.00038636
  37        -0.03223780
  38        -0.00770865
  39        -0.28001438
  40        -0.20970767
  41        -0.01140817
  42         0.00797101
  43         0.00000397
  44         0.00017056
  45         0.00028117
  46         0.00376456
  47        -0.01167760
  48         0.29895100
  49        -0.00319206
  50         0.01009841
  51        -0.23569727
  52        -0.00475960
  53         0.00127647
  54        -0.07352834
  55        -0.00274688
  56        -0.00096468
  57        -0.00022352
  58        -0.00101476
  59         0.00066009
  60         0.00112875
  61        -0.00269148
  62         0.07875610
  63        -0.00027601
  64         0.00025751
  65        -0.03225535
  66        -0.01893573
  67         0.28711781
  68        -0.19913118
  69        -0.00410178
  70        -0.01316135
  71         0.00004627
  72         0.00019793
  73         0.00048483
  74         0.00090233
  75        -0.00282624
  76         0.07875380
  77        -0.00075659
  78         0.00055350
  79        -0.03223818
  80         0.00777281
  81         0.28001618
  82         0.20970582
  83         0.01134558
  84        -0.00798400
  85         0.00012073
  86         0.00029450
  87         0.00181530
  88        -0.00560344
  89         0.14910989
  90        -0.00034708
  91        -0.00026813
  92         0.00182302
  93        -0.00561202
  94         0.14910936
  95         0.00001640
  96        -0.00039739
  97         0.00183207
  98        -0.00560902
  99         0.14910936
 100         0.00016029
 101         0.00018059
 102         0.00181574
 103        -0.00560449
 104         0.14910985
Sym=    51a  
Ene=     1.0741
Spin= Alpha
Occup=    0.00000
   1        -0.01365802
   2        -0.15824409
   3         0.28945090
   4         0.00925996
   5        -0.52066844
   6        -0.01989942
   7        -0.01792670
   8         1.00784094
   9         0.03830714
  10        -0.10372856
  11        -0.00200696
  12         0.00733246
  13        -0.01581549
  14        -0.00049230
  15         0.30775432
  16         1.36617844
  17        -2.02052904
  18         0.03838914
  19         0.11579428
  20         0.00385114
  21         0.20094496
  22        -0.12866460
  23        -0.00725575
  24        -0.05488080
  25        -0.00374222
  26        -0.00210799
  27         0.15571558
  28        -0.02303138
  29        -0.30775290
  30        -1.36617194
  31         2.02052262
  32        -0.04248178
  33         0.11431737
  34         0.00478421
  35        -0.19623656
  36        -0.13589457
  37        -0.00274549
  38         0.05491611
  39         0.00188894
  40         0.00273173
  41        -0.15364682
  42        -0.03425551
  43         0.01365751
  44         0.15823993
  45        -0.28944990
  46         0.00925987
  47        -0.52066263
  48        -0.01989653
  49        -0.01792633
  50         1.00782701
  51         0.03830385
  52         0.10372791
  53         0.00200547
  54        -0.00733261
  55         0.01581511
  56         0.00049235
  57        -0.30775286
  58        -1.36617173
  59         2.02052231
  60         0.03838736
  61         0.11579145
  62         0.00384526
  63         0.20094356
  64        -0.12865858
  65        -0.00724869
  66         0.05488002
  67         0.00374449
  68         0.00211667
  69        -0.15571394
  70         0.02303153
  71         0.30775442
  72         1.36617892
  73        -2.02052965
  74        -0.04248361
  75         0.11432064
  76         0.00477570
  77        -0.19623854
  78        -0.13590126
  79        -0.00273141
  80        -0.05491812
  81        -0.00188189
  82        -0.00273977
  83         0.15364791
  84         0.03425514
  85        -0.02273270
  86         0.41645970
  87         0.04671660
  88        -0.02471685
  89        -0.00157453
  90         0.02273345
  91        -0.41645783
  92        -0.04580911
  93        -0.02640228
  94        -0.00052672
  95         0.02273319
  96        -0.41645779
  97         0.04671654
  98        -0.02471661
  99        -0.00157610
 100        -0.02273270
 101         0.41645985
 102        -0.04580913
 103        -0.02640251
 104        -0.00052523
Sym=    52a  
Ene=     1.0781
Spin= Alpha
Occup=    0.00000
   1        -0.04563955
   2        -0.39930242
   3         0.11722633
   4         0.00981597
   5        -0.55174863
   6        -0.02080756
   7        -0.02663839
   8         1.49740569
   9         0.05660029
  10        -0.07596210
  11        -0.00137776
  12         0.00573738
  13        -0.02012272
  14        -0.00066772
  15         0.16856769
  16         0.77053394
  17        -0.89521031
  18         0.11379949
  19         0.32520949
  20         0.01087165
  21         0.29974923
  22        -0.77145333
  23        -0.03265853
  24        -0.12612535
  25        -0.00520711
  26         0.00396057
  27         0.12308298
  28        -0.02712622
  29         0.16857347
  30         0.77055901
  31        -0.89530684
  32         0.12528802
  33        -0.32084653
  34        -0.01359628
  35         0.27209139
  36         0.78182645
  37         0.02615178
  38        -0.12617506
  39        -0.00280778
  40         0.00320653
  41         0.12080494
  42         0.03610384
  43        -0.04563987
  44        -0.39930036
  45         0.11725850
  46        -0.00981431
  47         0.55174653
  48         0.02094151
  49         0.02663633
  50        -1.49738466
  51        -0.05672404
  52        -0.07596523
  53        -0.00137817
  54         0.00571236
  55        -0.02012383
  56        -0.00066803
  57         0.16857346
  58         0.77055896
  59        -0.89530667
  60        -0.11379509
  61        -0.32520396
  62        -0.01083782
  63        -0.29972256
  64         0.77140890
  65         0.03263617
  66        -0.12612976
  67        -0.00510548
  68         0.00388896
  69         0.12308411
  70        -0.02713002
  71         0.16856764
  72         0.77053371
  73        -0.89520986
  74        -0.12529200
  75         0.32085260
  76         0.01361251
  77        -0.27211686
  78        -0.78187319
  79        -0.02613644
  80        -0.12617447
  81        -0.00270472
  82         0.00328529
  83         0.12080653
  84         0.03610159
  85         0.06205417
  86         0.30604727
  87         0.01765832
  88        -0.02080113
  89        -0.00097018
  90         0.06204057
  91         0.30604812
  92         0.01690918
  93         0.02143022
  94         0.00063033
  95         0.06204077
  96         0.30604813
  97        -0.01765978
  98         0.02080036
  99         0.00102431
 100         0.06205410
 101         0.30604724
 102        -0.01690641
 103        -0.02143101
 104        -0.00057372
Sym=    53a  
Ene=     1.1030
Spin= Alpha
Occup=    0.00000
   1        -0.00520622
   2         0.25114668
   3         1.71611110
   4        -0.00122855
   5         0.07174098
   6         0.00688983
   7         0.02831509
   8        -1.59559085
   9        -0.06643973
  10        -0.02387344
  11        -0.00035493
  12         0.00182365
  13        -0.01281504
  14        -0.00044643
  15         0.15851210
  16         0.65274387
  17        -4.66913127
  18        -0.28042330
  19        -0.45511585
  20        -0.01403063
  21        -1.73455851
  22         2.90942171
  23         0.13160597
  24         0.15408115
  25         0.00641283
  26        -0.01359728
  27         0.06382574
  28         0.09412675
  29        -0.15850905
  30        -0.65273011
  31         4.66911598
  32         0.29642394
  33        -0.44460772
  34        -0.02069445
  35         1.62998745
  36         2.97073666
  37         0.09335909
  38        -0.15423711
  39         0.00141680
  40         0.01164848
  41        -0.07042927
  42         0.08952179
  43         0.00520562
  44        -0.25115281
  45        -1.71611257
  46        -0.00122903
  47         0.07175135
  48         0.00685223
  49         0.02831551
  50        -1.59561882
  51        -0.06640613
  52         0.02387201
  53         0.00035591
  54        -0.00182216
  55         0.01281497
  56         0.00044640
  57        -0.15850903
  58        -0.65273003
  59         4.66911627
  60        -0.28042588
  61        -0.45512292
  62        -0.01399448
  63        -1.73456316
  64         2.90943733
  65         0.13158689
  66        -0.15408383
  67        -0.00639725
  68         0.01359631
  69        -0.06382354
  70        -0.09412816
  71         0.15851215
  72         0.65274408
  73        -4.66913138
  74         0.29642119
  75        -0.44460372
  76        -0.02065106
  77         1.62998398
  78         2.97072262
  79         0.09332218
  80         0.15423507
  81        -0.00139401
  82        -0.01163732
  83         0.07043191
  84        -0.08952152
  85        -0.76538877
  86        -0.25749273
  87         0.10075144
  88        -0.06126057
  89        -0.00351702
  90         0.76539041
  91         0.25749783
  92        -0.09850728
  93        -0.06489025
  94        -0.00126648
  95         0.76539042
  96         0.25749782
  97         0.10075144
  98        -0.06126080
  99        -0.00350637
 100        -0.76538892
 101        -0.25749275
 102        -0.09850717
 103        -0.06489121
 104        -0.00124422
Sym=    54a  
Ene=     1.1039
Spin= Alpha
Occup=    0.00000
   1         0.00001975
   2        -0.00100627
   3        -0.00683640
   4         0.01240099
   5        -0.03879849
   6         1.02376712
   7        -0.01822543
   8         0.06263518
   9        -1.49541138
  10        -0.00379858
  11         0.00103023
  12        -0.05928927
  13        -0.00216978
  14        -0.00075708
  15        -0.00061707
  16        -0.00253648
  17         0.01848273
  18         0.00009280
  19         0.00497774
  20        -0.08403975
  21         0.01075699
  22        -0.02330710
  23         0.31050596
  24        -0.00386952
  25         0.11840549
  26        -0.01175069
  27         0.00073614
  28        -0.00498037
  29         0.00061390
  30         0.00252078
  31        -0.01850093
  32        -0.00219869
  33         0.00494366
  34        -0.08401306
  35        -0.00281796
  36        -0.02354950
  37         0.31066084
  38        -0.00080597
  39         0.11793941
  40         0.01616799
  41         0.00231287
  42        -0.00460435
  43        -0.00001775
  44         0.00101939
  45         0.00682694
  46         0.01242274
  47        -0.03881320
  48         1.02376511
  49        -0.01828433
  50         0.06267098
  51        -1.49540867
  52         0.00380072
  53        -0.00103019
  54         0.05928909
  55         0.00217089
  56         0.00075749
  57         0.00062301
  58         0.00255887
  59        -0.01853087
  60         0.00010084
  61         0.00498721
  62        -0.08403974
  63         0.01069145
  64        -0.02336543
  65         0.31050508
  66         0.00387106
  67        -0.11840573
  68         0.01175062
  69        -0.00073582
  70         0.00498410
  71        -0.00062563
  72        -0.00257110
  73         0.01858397
  74        -0.00220341
  75         0.00493807
  76        -0.08401330
  77        -0.00274005
  78        -0.02356862
  79         0.31065892
  80         0.00080932
  81        -0.11793908
  82        -0.01616789
  83        -0.00231937
  84         0.00460348
  85         0.00308816
  86         0.00105291
  87        -0.00049990
  88         0.00056052
  89        -0.00835794
  90        -0.00308926
  91        -0.00105190
  92         0.00029376
  93         0.00056609
  94        -0.00836734
  95        -0.00306134
  96        -0.00105341
  97        -0.00049867
  98         0.00056334
  99        -0.00835801
 100         0.00306283
 101         0.00103944
 102         0.00029175
 103         0.00057236
 104        -0.00836706
Sym=    55a  
Ene=     1.1390
Spin= Alpha
Occup=    0.00000
   1        -0.00000000
   2        -0.00000003
   3        -0.00000003
   4        -0.72325213
   5        -0.01318226
   6         0.00835402
   7         1.99236505
   8         0.03630798
   9        -0.02286562
  10         0.00004810
  11        -0.00239627
  12         0.00068982
  13         0.00226632
  14        -0.06290001
  15        -0.16487226
  16        -0.77801251
  17         1.99602787
  18        -0.15883741
  19         0.04241569
  20         0.00351810
  21         1.21881784
  22         0.30262173
  23        -0.00333202
  24        -0.00246773
  25         0.00590964
  26        -0.00591146
  27         0.10041664
  28         0.19193486
  29        -0.16487201
  30        -0.77801184
  31         1.99602582
  32        -0.15722569
  33        -0.04817489
  34         0.00010752
  35         1.22878423
  36        -0.25802266
  37        -0.02462040
  38        -0.00219006
  39        -0.00841559
  40        -0.00193987
  41         0.11396360
  42        -0.18420488
  43        -0.00000000
  44        -0.00000002
  45         0.00000017
  46        -0.72325267
  47        -0.01318009
  48         0.00829792
  49         1.99236295
  50         0.03630509
  51        -0.02279340
  52        -0.00004823
  53         0.00239909
  54        -0.00069060
  55        -0.00226632
  56         0.06290008
  57         0.16487206
  58         0.77801210
  59        -1.99602682
  60        -0.15883719
  61         0.04241458
  62         0.00353520
  63         1.21881126
  64         0.30262221
  65        -0.00337055
  66         0.00246760
  67        -0.00590741
  68         0.00591150
  69        -0.10041683
  70        -0.19193502
  71         0.16487221
  72         0.77801228
  73        -1.99602695
  74        -0.15722570
  75        -0.04817544
  76         0.00011025
  77         1.22879063
  78        -0.25802416
  79        -0.02460301
  80         0.00219120
  81         0.00841815
  82         0.00195715
  83        -0.11396269
  84         0.18420497
  85         0.45354256
  86        -0.04270289
  87        -0.07117344
  88        -0.01446501
  89         0.00034369
  90         0.45354070
  91        -0.04270349
  92        -0.07164186
  93         0.01186107
  94         0.00133711
  95        -0.45354073
  96         0.04270353
  97        -0.07117358
  98        -0.01446515
  99         0.00034077
 100        -0.45354258
 101         0.04270287
 102        -0.07164159
 103         0.01186035
 104         0.00135018
Sym=    56a  
Ene=     1.1655
Spin= Alpha
Occup=    0.00000
   1        -0.00000216
   2        -0.00001244
   3        -0.00001279
   4         0.01258798
   5        -0.03896820
   6         1.03542337
   7        -0.02008098
   8         0.06190821
   9        -1.64440196
  10        -0.00192890
  11         0.00051015
  12        -0.02939864
  13        -0.00110280
  14        -0.00037912
  15        -0.00011044
  16        -0.00046987
  17         0.00114786
  18        -0.00177696
  19         0.00583045
  20        -0.15295137
  21         0.00744366
  22        -0.02565331
  23         0.66969554
  24         0.00229980
  25         0.05662698
  26         0.05328891
  27         0.00264057
  28        -0.00148654
  29         0.00010624
  30         0.00045810
  31        -0.00124038
  32         0.00176548
  33        -0.00567470
  34         0.15295721
  35        -0.00749571
  36         0.02479512
  37        -0.66972784
  38         0.00456228
  39        -0.05843878
  40         0.05113978
  41         0.00126571
  42         0.00284025
  43        -0.00000126
  44         0.00000160
  45         0.00003039
  46        -0.01254234
  47         0.03895266
  48        -1.03542557
  49         0.01993309
  50        -0.06183121
  51         1.64440932
  52        -0.00193027
  53         0.00051002
  54        -0.02939853
  55        -0.00110279
  56        -0.00038173
  57        -0.00010210
  58        -0.00043921
  59         0.00100819
  60         0.00179598
  61        -0.00581559
  62         0.15295157
  63        -0.00748267
  64         0.02548879
  65        -0.66970196
  66         0.00230221
  67         0.05662780
  68         0.05328856
  69         0.00264962
  70        -0.00147193
  71         0.00009114
  72         0.00038933
  73        -0.00087171
  74        -0.00177471
  75         0.00569905
  76        -0.15295633
  77         0.00739891
  78        -0.02489949
  79         0.66972440
  80         0.00454909
  81        -0.05843923
  82         0.05114019
  83         0.00127290
  84         0.00282978
  85        -0.00030872
  86        -0.00005206
  87         0.00102053
  88        -0.00320079
  89         0.08523077
  90         0.00027594
  91         0.00005749
  92        -0.00101653
  93         0.00321399
  94        -0.08523044
  95        -0.00029733
  96        -0.00005847
  97        -0.00102198
  98         0.00320272
  99        -0.08523077
 100         0.00029698
 101         0.00007202
 102         0.00102510
 103        -0.00321106
 104         0.08523035
Sym=    57a  
Ene=     1.1813
Spin= Alpha
Occup=    0.00000
   1        -0.00000000
   2         0.00000001
   3         0.00000016
   4         0.03570215
   5         0.00063923
   6        -0.00010967
   7        -0.25275598
   8        -0.00458617
   9         0.00237224
  10        -0.00003052
  11         0.00149376
  12        -0.00043576
  13        -0.00140539
  14         0.03899919
  15         0.38095115
  16         1.62512576
  17        -4.30961870
  18        -0.16192448
  19        -0.17992340
  20        -0.00487622
  21         1.18724710
  22         1.15078140
  23         0.02918084
  24        -0.01216458
  25        -0.00354793
  26        -0.00467378
  27         0.15692276
  28        -0.03804770
  29        -0.38095086
  30        -1.62512451
  31         4.30961720
  32         0.16821888
  33        -0.17391179
  34        -0.00854353
  35        -1.22740948
  36         1.10680270
  37         0.05623327
  38         0.01223128
  39         0.00024709
  40         0.00563935
  41        -0.15377664
  42        -0.04925527
  43        -0.00000000
  44         0.00000000
  45        -0.00000009
  46        -0.03570228
  47        -0.00063726
  48         0.00005479
  49         0.25275645
  50         0.00458352
  51        -0.00230130
  52        -0.00003017
  53         0.00149526
  54        -0.00043002
  55        -0.00140514
  56         0.03899912
  57         0.38095083
  58         1.62512438
  59        -4.30961676
  60         0.16192480
  61         0.17992379
  62         0.00487102
  63        -1.18724934
  64        -1.15078048
  65        -0.02919395
  66        -0.01216301
  67        -0.00357811
  68        -0.00466046
  69         0.15692288
  70        -0.03804649
  71        -0.38095117
  72        -1.62512583
  73         4.30961842
  74        -0.16821851
  75         0.17391151
  76         0.00854525
  77         1.22740754
  78        -1.10680104
  79        -0.05627773
  80         0.01223087
  81         0.00022260
  82         0.00562373
  83        -0.15377747
  84        -0.04925447
  85         0.73698692
  86         0.15833603
  87         0.05859684
  88        -0.00540495
  89        -0.00089689
  90        -0.73698743
  91        -0.15833612
  92        -0.05836697
  93        -0.00753375
  94         0.00037426
  95         0.73698756
  96         0.15833617
  97        -0.05859698
  98         0.00540564
  99         0.00087855
 100        -0.73698714
 101        -0.15833607
 102         0.05836682
 103         0.00753445
 104        -0.00039365
Sym=    58a  
Ene=     1.1900
Spin= Alpha
Occup=    0.00000
   1        -0.00000192
   2        -0.00000352
   3         0.00002145
   4         0.00005076
   5         0.00001448
   6        -0.00000009
   7        -0.00015802
   8        -0.00005132
   9         0.00000002
  10         0.00258200
  11        -0.13042939
  12        -0.00243315
  13        -0.00167062
  14         0.00489043
  15         0.00003297
  16         0.00014466
  17        -0.00047377
  18         0.00204416
  19        -0.00636640
  20         0.16903184
  21        -0.00170742
  22         0.00508589
  23        -0.13269734
  24         0.02237796
  25         0.07971668
  26         0.36850869
  27         0.01485543
  28         0.00145887
  29        -0.00003253
  30        -0.00013888
  31         0.00055112
  32         0.00204077
  33        -0.00636708
  34         0.16903151
  35        -0.00149116
  36         0.00502485
  37        -0.13270173
  38        -0.02580755
  39         0.09245204
  40        -0.36529562
  41        -0.01263971
  42        -0.00793018
  43        -0.00000445
  44        -0.00002446
  45         0.00000936
  46        -0.00007391
  47        -0.00000979
  48         0.00000062
  49         0.00025741
  50        -0.00000228
  51        -0.00000329
  52         0.00258079
  53        -0.13042921
  54        -0.00243298
  55        -0.00167329
  56         0.00489096
  57         0.00003585
  58         0.00015946
  59        -0.00048090
  60        -0.00205049
  61         0.00635159
  62        -0.16903195
  63         0.00168422
  64        -0.00496735
  65         0.13270156
  66         0.02237960
  67         0.07971626
  68         0.36850853
  69         0.01485870
  70         0.00144539
  71        -0.00003775
  72        -0.00016242
  73         0.00042202
  74        -0.00202264
  75         0.00634935
  76        -0.16903272
  77         0.00154870
  78        -0.00498293
  79         0.13270308
  80        -0.02579906
  81         0.09245245
  82        -0.36529586
  83        -0.01265083
  84        -0.00792750
  85        -0.00000204
  86         0.00000313
  87         0.00106952
  88        -0.00330123
  89         0.08780962
  90        -0.00004062
  91         0.00001032
  92         0.00104307
  93        -0.00328975
  94         0.08781040
  95         0.00002602
  96         0.00001756
  97        -0.00106582
  98         0.00330378
  99        -0.08780957
 100        -0.00005466
 101        -0.00000283
 102        -0.00105414
 103         0.00329644
 104        -0.08780996
Sym=    59a  
Ene=     1.2550
Spin= Alpha
Occup=    0.00000
   1         0.00000498
   2         0.00000398
   3        -0.00003616
   4         0.00001349
   5        -0.00014783
   6        -0.00000579
   7        -0.00000906
   8         0.00032105
   9         0.00001231
  10         0.00122059
  11        -0.06129565
  12        -0.00114407
  13        -0.00077936
  14         0.00229224
  15        -0.00006990
  16        -0.00029963
  17         0.00107796
  18        -0.00201732
  19         0.00652377
  20        -0.17201303
  21         0.00310787
  22        -0.01042949
  23         0.26560619
  24        -0.00839731
  25         0.36682688
  26        -0.01071535
  27         0.00401512
  28        -0.01391157
  29         0.00007974
  30         0.00033396
  31        -0.00120102
  32        -0.00212355
  33         0.00652328
  34        -0.17201173
  35         0.00336532
  36        -0.01035369
  37         0.26560603
  38        -0.00607040
  39         0.36621629
  40         0.02438768
  41         0.00534456
  42        -0.01349548
  43         0.00001211
  44         0.00006403
  45        -0.00008520
  46         0.00001042
  47        -0.00010807
  48        -0.00000407
  49        -0.00009189
  50         0.00023685
  51         0.00000980
  52         0.00121499
  53        -0.06129537
  54        -0.00114369
  55        -0.00077959
  56         0.00229322
  57         0.00006477
  58         0.00027218
  59        -0.00088754
  60         0.00211671
  61        -0.00643295
  62         0.17201519
  63        -0.00349897
  64         0.00963202
  65        -0.26563140
  66        -0.00837618
  67         0.36682627
  68        -0.01071735
  69         0.00402869
  70        -0.01392392
  71        -0.00005018
  72        -0.00021799
  73         0.00088045
  74         0.00200771
  75        -0.00643217
  76         0.17201662
  77        -0.00296596
  78         0.00964433
  79        -0.26563757
  80        -0.00609899
  81         0.36621532
  82         0.02438975
  83         0.00534068
  84        -0.01351750
  85        -0.00006674
  86        -0.00001689
  87        -0.00240429
  88         0.00740528
  89        -0.19703141
  90         0.00018599
  91        -0.00001230
  92        -0.00236382
  93         0.00741673
  94        -0.19703116
  95         0.00019517
  96         0.00000165
  97         0.00236617
  98        -0.00741554
  99         0.19703119
 100        -0.00009832
 101        -0.00003259
 102         0.00240577
 103        -0.00742259
 104         0.19703074
Sym=    60a  
Ene=     1.2704
Spin= Alpha
Occup=    0.00000
   1        -0.00358162
   2         0.00452885
   3        -0.27427854
   4        -0.01103841
   5         0.62050501
   6         0.02347347
   7         0.01925949
   8        -1.08263850
   9        -0.04095077
  10        -0.00835729
  11        -0.00015270
  12         0.00070151
  13        -0.00404242
  14        -0.00013854
  15         0.28086009
  16         1.20168030
  17        -3.95423497
  18        -0.20426861
  19        -0.14260121
  20        -0.00293956
  21         1.19990851
  22         1.26482802
  23         0.03315771
  24         0.03356141
  25        -0.00207617
  26        -0.00187541
  27         0.01471617
  28        -0.07152125
  29        -0.28085998
  30        -1.20167986
  31         3.95423539
  32         0.20920757
  33        -0.13506839
  34        -0.00762924
  35        -1.24411609
  36         1.22030020
  37         0.06092868
  38        -0.03345611
  39        -0.00326738
  40         0.00342767
  41        -0.00953175
  42        -0.07234279
  43         0.00358183
  44        -0.00452799
  45         0.27427560
  46        -0.01103864
  47         0.62050612
  48         0.02345004
  49         0.01925990
  50        -1.08264240
  51        -0.04089788
  52         0.00835761
  53         0.00012714
  54        -0.00070584
  55         0.00404181
  56         0.00013945
  57        -0.28085989
  58        -1.20167944
  59         3.95423488
  60        -0.20426802
  61        -0.14260382
  62        -0.00287136
  63         1.19990695
  64         1.26483194
  65         0.03304426
  66        -0.03356529
  67         0.00223702
  68         0.00187104
  69        -0.01471395
  70         0.07151533
  71         0.28086012
  72         1.20168045
  73        -3.95423467
  74         0.20920798
  75        -0.13507057
  76        -0.00756976
  77        -1.24411598
  78         1.22030165
  79         0.06088453
  80         0.03345339
  81         0.00341384
  82        -0.00341919
  83         0.00953422
  84         0.07233722
  85         0.77320594
  86         0.10087755
  87         0.07313635
  88         0.04268793
  89         0.00067368
  90        -0.77320598
  91        -0.10087733
  92        -0.07460819
  93         0.03999534
  94         0.00237170
  95        -0.77320610
  96        -0.10087736
  97         0.07313738
  98         0.04268464
  99         0.00075872
 100         0.77320560
 101         0.10087748
 102        -0.07460711
 103         0.03999207
 104         0.00246143
Sym=    61a  
Ene=     1.3172
Spin= Alpha
Occup=    0.00000
   1         0.00000001
   2         0.00000005
   3        -0.00000003
   4         0.78353796
   5         0.01427879
   6        -0.00899306
   7        -3.82306202
   8        -0.06966748
   9         0.04382512
  10        -0.00006449
  11         0.00335144
  12        -0.00091905
  13        -0.00315910
  14         0.08772650
  15         0.18029386
  16         0.77741353
  17        -4.03980001
  18         0.21144015
  19        -0.02375156
  20        -0.00344434
  21        -3.97723429
  22        -0.91565829
  23         0.01356890
  24         0.18794416
  25        -0.00154908
  26        -0.00922883
  27        -0.03072323
  28        -0.15427464
  29        -0.18029314
  30        -0.77741078
  31         4.03980840
  32        -0.21045742
  33        -0.03143834
  34         0.00133057
  35         4.00722756
  36        -0.77018219
  37        -0.07736514
  38        -0.18771353
  39        -0.01011040
  40         0.01253662
  41         0.04173530
  42        -0.15138714
  43         0.00000001
  44         0.00000003
  45         0.00000009
  46        -0.78353808
  47        -0.01428022
  48         0.00903272
  49         3.82307068
  50         0.06967150
  51        -0.04393248
  52        -0.00006441
  53         0.00334504
  54        -0.00091989
  55        -0.00315920
  56         0.08772676
  57         0.18029310
  58         0.77741060
  59        -4.03980807
  60        -0.21143873
  61         0.02375158
  62         0.00346766
  63         3.97723743
  64         0.91566145
  65        -0.01359323
  66         0.18794160
  67        -0.00151557
  68        -0.00926584
  69        -0.03072491
  70        -0.15427717
  71        -0.18029384
  72        -0.77741344
  73         4.03979939
  74         0.21045861
  75         0.03143749
  76        -0.00133106
  77        -4.00722370
  78         0.77017974
  79         0.07738648
  80        -0.18771023
  81        -0.01010955
  82         0.01257870
  83         0.04173617
  84        -0.15138589
  85        -0.58976451
  86        -0.26466976
  87         0.05809898
  88        -0.00625641
  89        -0.00091063
  90         0.58976404
  91         0.26467006
  92        -0.05783904
  93        -0.00836688
  94         0.00036087
  95        -0.58976395
  96        -0.26467001
  97        -0.05809881
  98         0.00625502
  99         0.00094436
 100         0.58976466
 101         0.26466976
 102         0.05783884
 103         0.00836683
 104        -0.00035662
Sym=    62a  
Ene=     1.3773
Spin= Alpha
Occup=    0.00000
   1         0.00000001
   2         0.00000005
   3        -0.00000010
   4         0.19163106
   5         0.00349118
   6        -0.00217573
   7        -2.24272045
   8        -0.04086718
   9         0.02566882
  10         0.00005894
  11        -0.00291575
  12         0.00082507
  13         0.00269311
  14        -0.07475957
  15        -0.18239264
  16        -0.80858723
  17        -1.16754226
  18        -0.44487818
  19        -0.02667123
  20         0.00432580
  21         0.58069937
  22        -1.41123787
  23        -0.06003829
  24         0.14806006
  25        -0.00326918
  26        -0.00514518
  27        -0.05694259
  28        -0.19019506
  29        -0.18239295
  30        -0.80858858
  31        -1.16754440
  32        -0.44553764
  33         0.01044694
  34         0.00586005
  35         0.53012981
  36         1.43147225
  37         0.04736971
  38         0.14778132
  39         0.01077384
  40        -0.00921221
  41        -0.07047566
  42         0.18538612
  43         0.00000000
  44         0.00000001
  45        -0.00000007
  46         0.19162841
  47         0.00349040
  48        -0.00215663
  49        -2.24271664
  50        -0.04086334
  51         0.02556890
  52        -0.00005730
  53         0.00291393
  54        -0.00080056
  55        -0.00269221
  56         0.07476017
  57         0.18239307
  58         0.80858911
  59         1.16754252
  60        -0.44487891
  61        -0.02667159
  62         0.00431291
  63         0.58070242
  64        -1.41123743
  65        -0.05992218
  66        -0.14805638
  67         0.00321332
  68         0.00517600
  69         0.05694290
  70         0.19019666
  71         0.18239253
  72         0.80858679
  73         1.16754409
  74        -0.44553707
  75         0.01044620
  76         0.00585821
  77         0.53012652
  78         1.43148131
  79         0.04725276
  80        -0.14778204
  81        -0.01073216
  82         0.00922195
  83         0.07047676
  84        -0.18538845
  85         0.78042498
  86         0.07674161
  87        -0.01509759
  88        -0.01112421
  89        -0.00032853
  90         0.78042489
  91         0.07674110
  92        -0.01548107
  93         0.01056586
  94         0.00070953
  95        -0.78042479
  96        -0.07674121
  97        -0.01509812
  98        -0.01112304
  99        -0.00036077
 100        -0.78042499
 101        -0.07674151
 102        -0.01548074
 103         0.01056525
 104         0.00072499
Sym=    63a  
Ene=     1.3924
Spin= Alpha
Occup=    0.00000
   1        -0.00000696
   2        -0.00004199
   3        -0.00003387
   4         0.00005046
   5         0.00003046
   6         0.00000057
   7        -0.00088901
   8         0.00000865
   9         0.00001108
  10        -0.00289332
  11         0.14638817
  12         0.00273096
  13         0.00187363
  14        -0.00551477
  15        -0.00008439
  16        -0.00037357
  17        -0.00040789
  18         0.00140745
  19        -0.00499892
  20         0.13313810
  21        -0.00352815
  22         0.01184206
  23        -0.33360648
  24         0.00184599
  25        -0.32879211
  26        -0.07846240
  27        -0.00695701
  28         0.01133031
  29        -0.00008430
  30        -0.00037863
  31        -0.00065805
  32        -0.00180640
  33         0.00502551
  34        -0.13313256
  35         0.00411529
  36        -0.01191413
  37         0.33359720
  38        -0.01119117
  39         0.33130478
  40        -0.06615217
  41         0.00147943
  42        -0.01321681
  43         0.00001595
  44         0.00007504
  45        -0.00003621
  46         0.00010496
  47         0.00004780
  48         0.00000061
  49        -0.00114509
  50        -0.00004844
  51         0.00001201
  52         0.00289820
  53        -0.14638807
  54        -0.00273145
  55        -0.00186894
  56         0.00551415
  57         0.00009324
  58         0.00040484
  59         0.00047539
  60         0.00139178
  61        -0.00501236
  62         0.13313805
  63        -0.00372452
  64         0.01174815
  65        -0.33360813
  66        -0.00184256
  67         0.32879392
  68         0.07846182
  69         0.00695584
  70        -0.01129898
  71         0.00009228
  72         0.00041133
  73         0.00050205
  74        -0.00182997
  75         0.00502416
  76        -0.13313206
  77         0.00426505
  78        -0.01205938
  79         0.33358941
  80         0.01121805
  81        -0.33130392
  82         0.06615103
  83        -0.00149170
  84         0.01320642
  85         0.00046528
  86         0.00005263
  87         0.00322421
  88        -0.01006000
  89         0.26765515
  90         0.00034815
  91        -0.00000125
  92        -0.00325002
  93         0.01009532
  94        -0.26765379
  95        -0.00038322
  96        -0.00006867
  97         0.00322674
  98        -0.01006089
  99         0.26765536
 100        -0.00028863
 101        -0.00002369
 102        -0.00324688
 103         0.01008781
 104        -0.26765385
Sym=    64a  
Ene=     1.4118
Spin= Alpha
Occup=    0.00000
   1        -0.00000132
   2        -0.00000974
   3        -0.00001302
   4         0.00010955
   5        -0.00076767
   6         0.02062812
   7         0.00713017
   8        -0.01981930
   9         0.52706447
  10         0.01330866
  11        -0.00351838
  12         0.20274057
  13         0.00759548
  14         0.00260190
  15         0.00003535
  16         0.00014295
  17         0.00009964
  18         0.00036443
  19        -0.00096922
  20         0.02637744
  21        -0.00648530
  22         0.02131199
  23        -0.55371495
  24         0.01591331
  25        -0.36431611
  26         0.12727760
  27         0.00041077
  28         0.01530704
  29         0.00000108
  30         0.00001865
  31        -0.00000827
  32        -0.00028982
  33         0.00101935
  34        -0.02637972
  35         0.00637306
  36        -0.02056094
  37         0.55374401
  38         0.00164310
  39         0.35965814
  40         0.14078850
  41         0.00964504
  42        -0.01180941
  43         0.00000440
  44         0.00001890
  45        -0.00002011
  46        -0.00011461
  47         0.00077821
  48        -0.02062324
  49        -0.00688782
  50         0.01982815
  51        -0.52706100
  52         0.01330765
  53        -0.00351877
  54         0.20273748
  55         0.00759734
  56         0.00259170
  57         0.00000704
  58         0.00001655
  59        -0.00004001
  60        -0.00030200
  61         0.00097396
  62        -0.02638129
  63         0.00643163
  64        -0.02117872
  65         0.55372008
  66         0.01593698
  67        -0.36430937
  68         0.12728476
  69         0.00040692
  70         0.01528698
  71        -0.00003090
  72        -0.00012054
  73        -0.00006066
  74         0.00035198
  75        -0.00101178
  76         0.02637597
  77        -0.00650463
  78         0.02033646
  79        -0.55375138
  80         0.00166373
  81         0.35966714
  82         0.14077912
  83         0.00963445
  84        -0.01177688
  85        -0.00005838
  86        -0.00002171
  87         0.00253518
  88        -0.00786404
  89         0.20907665
  90        -0.00005009
  91         0.00000953
  92        -0.00253533
  93         0.00786895
  94        -0.20907803
  95         0.00002328
  96        -0.00001923
  97        -0.00253245
  98         0.00786825
  99        -0.20907808
 100         0.00007477
 101         0.00002629
 102         0.00254259
 103        -0.00786740
 104         0.20907641
Sym=    65a  
Ene=     1.4259
Spin= Alpha
Occup=    0.00000
   1        -0.00000639
   2        -0.00003435
   3        -0.00002740
   4        -0.00287212
   5         0.00888556
   6        -0.23581485
   7        -0.00268117
   8         0.00856362
   9        -0.22725690
  10        -0.00898661
  11         0.00237671
  12        -0.13694731
  13        -0.00512950
  14        -0.00175638
  15        -0.00001273
  16        -0.00005024
  17         0.00018621
  18         0.00173931
  19        -0.00544940
  20         0.14495958
  21         0.00043220
  22        -0.00084624
  23         0.02131754
  24         0.01633260
  25         0.29632324
  26         0.34572879
  27         0.01660269
  28        -0.00695568
  29         0.00000362
  30         0.00001456
  31        -0.00022029
  32         0.00174236
  33        -0.00544530
  34         0.14495944
  35         0.00013178
  36        -0.00081166
  37         0.02133577
  38        -0.02829848
  39         0.30813716
  40        -0.33444975
  41        -0.00885877
  42        -0.01564746
  43         0.00000240
  44         0.00001678
  45         0.00005583
  46        -0.00282440
  47         0.00888308
  48        -0.23581697
  49        -0.00293337
  50         0.00857395
  51        -0.22726539
  52         0.00898879
  53        -0.00237680
  54         0.13695180
  55         0.00512972
  56         0.00175515
  57         0.00000765
  58         0.00002984
  59         0.00000690
  60         0.00174141
  61        -0.00545417
  62         0.14495912
  63         0.00028929
  64        -0.00093589
  65         0.02132920
  66        -0.01634478
  67        -0.29633150
  68        -0.34572441
  69        -0.01660609
  70         0.00696957
  71         0.00000301
  72         0.00001522
  73         0.00002101
  74         0.00174160
  75        -0.00545475
  76         0.14495931
  77         0.00029068
  78        -0.00087563
  79         0.02131819
  80         0.02830572
  81        -0.30812804
  82         0.33445276
  83         0.00886452
  84         0.01566429
  85         0.00004112
  86         0.00002231
  87         0.00087896
  88        -0.00276503
  89         0.07336407
  90        -0.00002777
  91        -0.00000611
  92         0.00087737
  93        -0.00274344
  94         0.07335980
  95        -0.00004656
  96        -0.00001294
  97         0.00087399
  98        -0.00277058
  99         0.07335884
 100         0.00001284
 101         0.00000079
 102         0.00088781
 103        -0.00275592
 104         0.07336425
Sym=    66a  
Ene=     1.5124
Spin= Alpha
Occup=    0.00000
   1         0.18591646
   2         0.75376336
   3        -1.23513560
   4         0.00539964
   5        -0.30354744
   6        -0.01148015
   7        -0.01544736
   8         0.86840647
   9         0.03284276
  10         0.04516177
  11         0.00026239
  12        -0.00535311
  13         0.06313621
  14         0.00224073
  15         0.12661904
  16         0.46809884
  17        -0.62690135
  18         0.20797011
  19         0.07446729
  20         0.00028881
  21         0.39679747
  22        -0.44374973
  23        -0.02149363
  24         0.31325414
  25         0.01625905
  26        -0.01927543
  27        -0.10261993
  28         0.22470253
  29         0.12661881
  30         0.46809788
  31        -0.62689588
  32         0.21048415
  33        -0.06684298
  34        -0.00504867
  35         0.38076070
  36         0.45792116
  37         0.01260690
  38         0.31359385
  39        -0.00114170
  40        -0.01440985
  41        -0.08617065
  42        -0.23197050
  43         0.18591697
  44         0.75376520
  45        -1.23514152
  46        -0.00539967
  47         0.30354698
  48         0.01148209
  49         0.01544751
  50        -0.86840757
  51        -0.03285018
  52         0.04516149
  53         0.00027779
  54        -0.00535433
  55         0.06313643
  56         0.00224013
  57         0.12661918
  58         0.46809927
  59        -0.62690024
  60        -0.20797062
  61        -0.07446707
  62        -0.00029369
  63        -0.39679862
  64         0.44374983
  65         0.02149141
  66         0.31325232
  67         0.01624071
  68        -0.01930413
  69        -0.10262055
  70         0.22470298
  71         0.12661866
  72         0.46809737
  73        -0.62689718
  74        -0.21048350
  75         0.06684258
  76         0.00506002
  77        -0.38075962
  78        -0.45792151
  79        -0.01260099
  80         0.31359293
  81        -0.00111432
  82        -0.01442034
  83        -0.08617138
  84        -0.23197158
  85         1.01500816
  86        -0.31850325
  87        -0.07524033
  88         0.03196829
  89         0.00212681
  90         1.01500895
  91        -0.31850236
  92        -0.07405471
  93        -0.03469008
  94        -0.00038417
  95         1.01500812
  96        -0.31850294
  97         0.07524031
  98        -0.03196766
  99        -0.00214177
 100         1.01500909
 101        -0.31850263
 102         0.07405479
 103         0.03468937
 104         0.00040441
Sym=    67a  
Ene=     1.5758
Spin= Alpha
Occup=    0.00000
   1         0.00000027
   2         0.00000111
   3        -0.00000196
   4         0.38736206
   5         0.00705705
   6        -0.00439566
   7        -1.45328860
   8        -0.02647922
   9         0.01657422
  10         0.00006770
  11        -0.00337001
  12         0.00097287
  13         0.00319196
  14        -0.08858666
  15        -0.30534200
  16        -1.17355591
  17         3.66914359
  18        -0.29705076
  19        -0.21662398
  20        -0.00456709
  21         2.34995635
  22        -2.57921798
  23        -0.12544012
  24         0.05952730
  25        -0.00596163
  26         0.00228571
  27        -0.09277837
  28        -0.22042831
  29         0.30534274
  30         1.17355893
  31        -3.66914328
  32         0.30456370
  33        -0.20566275
  34        -0.01141901
  35        -2.25669785
  36        -2.66315734
  37        -0.07288972
  38        -0.05920124
  39        -0.01051738
  40         0.00239331
  41         0.10839630
  42        -0.21309638
  43         0.00000026
  44         0.00000110
  45        -0.00000183
  46        -0.38736125
  47        -0.00705613
  48         0.00437244
  49         1.45329145
  50         0.02647902
  51        -0.01656786
  52         0.00006875
  53        -0.00337863
  54         0.00098621
  55         0.00319236
  56        -0.08858633
  57        -0.30534263
  58        -1.17355856
  59         3.66914291
  60         0.29705130
  61         0.21662402
  62         0.00456660
  63        -2.34995576
  64         2.57921933
  65         0.12548097
  66         0.05952927
  67        -0.00598892
  68         0.00230629
  69        -0.09277826
  70        -0.22042707
  71         0.30534212
  72         1.17355632
  73        -3.66914339
  74        -0.30456317
  75         0.20566276
  76         0.01141741
  77         2.25669782
  78         2.66315430
  79         0.07288930
  80        -0.05920073
  81        -0.01056379
  82         0.00238543
  83         0.10839509
  84        -0.21309469
  85         0.91006982
  86         0.51875680
  87        -0.12569850
  88         0.06789728
  89         0.00410249
  90        -0.91006979
  91        -0.51875744
  92         0.12320203
  93         0.07243495
  94         0.00120027
  95         0.91007085
  96         0.51875711
  97         0.12569855
  98        -0.06789755
  99        -0.00410243
 100        -0.91006870
 101        -0.51875709
 102        -0.12320212
 103        -0.07243422
 104        -0.00121227
Sym=    68a  
Ene=     1.6245
Spin= Alpha
Occup=    0.00000
   1        -0.47237994
   2        -1.92593968
   3         4.23102274
   4         0.00419206
   5        -0.23564603
   6        -0.00891790
   7         0.01181396
   8        -0.66413860
   9        -0.02512964
  10         0.18002519
  11         0.00374283
  12        -0.01188103
  13         0.00352140
  14        -0.00000836
  15         0.09802176
  16         0.39063145
  17        -1.37135095
  18        -0.19244201
  19        -0.26701524
  20        -0.00770632
  21        -0.45741484
  22        -0.02646496
  23         0.00453016
  24         0.26465475
  25        -0.00123447
  26        -0.01201235
  27        -0.07426054
  28        -0.20410000
  29         0.09802156
  30         0.39063054
  31        -1.37135297
  32        -0.20181463
  33         0.25983048
  34         0.01221684
  35        -0.45806249
  36         0.00978338
  37         0.00593367
  38         0.26435380
  39         0.01408166
  40        -0.01632517
  41        -0.08873889
  42         0.19783149
  43        -0.47238015
  44        -1.92594061
  45         4.23103057
  46        -0.00419202
  47         0.23564695
  48         0.00892354
  49        -0.01181390
  50         0.66413786
  51         0.02513047
  52         0.18002496
  53         0.00374230
  54        -0.01188338
  55         0.00352135
  56        -0.00000836
  57         0.09802137
  58         0.39062982
  59        -1.37135071
  60         0.19244260
  61         0.26701468
  62         0.00771051
  63         0.45741671
  64         0.02646677
  65        -0.00453040
  66         0.26465585
  67        -0.00123097
  68        -0.01200008
  69        -0.07426028
  70        -0.20410021
  71         0.09802195
  72         0.39063221
  73        -1.37135328
  74         0.20181407
  75        -0.25983082
  76        -0.01222108
  77         0.45806066
  78        -0.00978174
  79        -0.00592708
  80         0.26435399
  81         0.01407982
  82        -0.01631725
  83        -0.08873830
  84         0.19783145
  85         0.07013460
  86        -0.05475501
  87        -0.03272019
  88        -0.13645149
  89        -0.00473787
  90         0.07013392
  91        -0.05475537
  92        -0.03755196
  93         0.13517079
  94         0.00554215
  95         0.07013447
  96        -0.05475501
  97         0.03272008
  98         0.13645149
  99         0.00473221
 100         0.07013400
 101        -0.05475536
 102         0.03755203
 103        -0.13517107
 104        -0.00554170
Sym=    69a  
Ene=     1.7375
Spin= Alpha
Occup=    0.00000
   1         0.00000005
   2         0.00000020
   3        -0.00000063
   4        -0.39831467
   5        -0.00725725
   6         0.00453525
   7         0.27287286
   8         0.00497194
   9        -0.00311212
  10         0.00000863
  11        -0.00045821
  12         0.00012364
  13         0.00043390
  14        -0.01205051
  15        -0.02819954
  16        -0.16841641
  17        -0.14502348
  18         0.04961372
  19         0.18706600
  20         0.00643738
  21        -0.37917289
  22        -0.49278637
  23        -0.01395671
  24         0.06413336
  25         0.00391967
  26         0.00863024
  27        -0.32747070
  28        -0.03708457
  29        -0.02819974
  30        -0.16841763
  31        -0.14502220
  32         0.05623521
  33        -0.18513912
  34        -0.00763075
  35        -0.39644955
  36         0.47864842
  37         0.02281464
  38         0.06409315
  39         0.00583362
  40         0.00805582
  41        -0.32928720
  42         0.01332997
  43         0.00000002
  44         0.00000014
  45         0.00000010
  46        -0.39831456
  47        -0.00725773
  48         0.00454771
  49         0.27287915
  50         0.00497227
  51        -0.00311962
  52        -0.00000876
  53         0.00045509
  54        -0.00012609
  55        -0.00043406
  56         0.01205064
  57         0.02819969
  58         0.16841742
  59         0.14502290
  60         0.04961389
  61         0.18706691
  62         0.00644468
  63        -0.37916828
  64        -0.49278114
  65        -0.01394630
  66        -0.06413180
  67        -0.00391508
  68        -0.00861121
  69         0.32747067
  70         0.03708374
  71         0.02819958
  72         0.16841659
  73         0.14502304
  74         0.05623493
  75        -0.18513756
  76        -0.00764075
  77        -0.39645437
  78         0.47865422
  79         0.02280681
  80        -0.06409261
  81        -0.00584017
  82        -0.00804296
  83         0.32928851
  84        -0.01333034
  85         0.18142754
  86        -0.20332179
  87         0.13377318
  88         0.33913210
  89         0.01113842
  90         0.18142747
  91        -0.20332192
  92         0.14574802
  93        -0.33403747
  94        -0.01434544
  95        -0.18142779
  96         0.20332206
  97         0.13377287
  98         0.33913130
  99         0.01113374
 100        -0.18142739
 101         0.20332175
 102         0.14574834
 103        -0.33403870
 104        -0.01433717
Sym=    70a  
Ene=     1.8013
Spin= Alpha
Occup=    0.00000
   1         0.07415714
   2         0.49779367
   3         0.84530443
   4         0.00870668
   5        -0.48944072
   6        -0.01853555
   7        -0.00513103
   8         0.28846925
   9         0.01093029
  10        -0.04969807
  11        -0.00007963
  12         0.00689167
  13        -0.09574312
  14        -0.00340907
  15        -0.03250177
  16        -0.22028335
  17        -0.37014745
  18        -0.18267742
  19        -0.02310088
  20         0.00129552
  21        -0.22574656
  22        -0.52809399
  23        -0.01724712
  24         0.15529195
  25        -0.00466101
  26        -0.00224555
  27        -0.12496025
  28        -0.25096963
  29        -0.03250131
  30        -0.22028184
  31        -0.37016528
  32        -0.18337979
  33         0.01643009
  34         0.00290621
  35        -0.24437931
  36         0.51951627
  37         0.02261457
  38         0.15492135
  39         0.01403717
  40        -0.00755848
  41        -0.14268689
  42         0.24109719
  43         0.07415668
  44         0.49779084
  45         0.84530416
  46        -0.00870662
  47         0.48943821
  48         0.01853443
  49         0.00513094
  50        -0.28846406
  51        -0.01092855
  52        -0.04969963
  53         0.00003368
  54         0.00689621
  55        -0.09574040
  56        -0.00341325
  57        -0.03250137
  58        -0.22028213
  59        -0.37016524
  60         0.18267655
  61         0.02310457
  62        -0.00140100
  63         0.22574265
  64         0.52808864
  65         0.01706149
  66         0.15527648
  67        -0.00469219
  68        -0.00248017
  69        -0.12496925
  70        -0.25096973
  71        -0.03250176
  72        -0.22028327
  73        -0.37014737
  74         0.18338079
  75        -0.01643456
  76        -0.00279346
  77         0.24438360
  78        -0.51953565
  79        -0.02243013
  80         0.15490690
  81         0.01407173
  82        -0.00778082
  83        -0.14269522
  84         0.24109473
  85        -0.01984467
  86         0.05536807
  87         0.25207207
  88         0.31819096
  89         0.00898557
  90        -0.01984313
  91         0.05536605
  92         0.26322248
  93        -0.30879776
  94        -0.01489749
  95        -0.01984295
  96         0.05536602
  97        -0.25206897
  98        -0.31819305
  99        -0.00884801
 100        -0.01984476
 101         0.05536808
 102        -0.26322578
 103         0.30880625
 104         0.01475485
Sym=    71a  
Ene=     1.8157
Spin= Alpha
Occup=    0.00000
   1        -0.00008864
   2        -0.00019957
   3         0.00242332
   4        -0.00000416
   5        -0.00046091
   6        -0.00001729
   7        -0.00009277
   8         0.00031366
   9         0.00001293
  10        -0.00502035
  11         0.25117190
  12         0.00469559
  13         0.00303055
  14        -0.00940554
  15        -0.00008701
  16        -0.00038381
  17         0.00125138
  18         0.00257101
  19        -0.00860901
  20         0.22760960
  21         0.00333223
  22        -0.01513459
  23         0.35831938
  24        -0.02953266
  25        -0.06809010
  26        -0.47705555
  27        -0.01890695
  28        -0.00353043
  29         0.00005012
  30         0.00018950
  31        -0.00142476
  32        -0.00265923
  33         0.00849010
  34        -0.22761307
  35        -0.00334607
  36         0.01223495
  37        -0.35842821
  38        -0.03281476
  39         0.08458311
  40        -0.47419741
  41        -0.01680141
  42        -0.00915549
  43         0.00012477
  44         0.00043795
  45        -0.00202983
  46         0.00005720
  47        -0.00021210
  48        -0.00000865
  49        -0.00000830
  50         0.00014331
  51         0.00000550
  52         0.00500238
  53        -0.25117168
  54        -0.00469291
  55        -0.00306955
  56         0.00940312
  57         0.00007741
  58         0.00031007
  59        -0.00143951
  60         0.00266407
  61        -0.00854986
  62         0.22761071
  63         0.00369474
  64        -0.01470374
  65         0.35833106
  66         0.02962047
  67         0.06808876
  68         0.47705577
  69         0.01879300
  70         0.00341094
  71        -0.00009744
  72        -0.00043888
  73         0.00133744
  74        -0.00258936
  75         0.00857909
  76        -0.22761054
  77        -0.00350877
  78         0.01206184
  79        -0.35843286
  80         0.03287964
  81        -0.08457783
  82         0.47419357
  83         0.01675682
  84         0.00924770
  85        -0.00035449
  86         0.00021817
  87        -0.00308670
  88         0.01095675
  89        -0.27853504
  90         0.00045177
  91        -0.00022937
  92         0.00318123
  93        -0.01018229
  94         0.27856263
  95         0.00033274
  96        -0.00022461
  97        -0.00324126
  98         0.01072026
  99        -0.27854148
 100        -0.00037840
 101         0.00025082
 102         0.00309611
 103        -0.01009022
 104         0.27856766
Sym=    72a  
Ene=     1.8220
Spin= Alpha
Occup=    0.00000
   1         0.13470608
   2         0.42976068
   3        -2.54830863
   4        -0.00589823
   5         0.33155915
   6         0.01254872
   7         0.00294279
   8        -0.16541622
   9        -0.00625023
  10         0.04159946
  11        -0.00089129
  12        -0.00983833
  13         0.18713274
  14         0.00670038
  15         0.09324200
  16         0.39453085
  17        -1.41659726
  18         0.13636916
  19         0.01984031
  20        -0.00067808
  21         0.98210787
  22         1.44438947
  23         0.04277108
  24        -0.12161194
  25         0.00744289
  26         0.00224857
  27         0.04795680
  28         0.28294408
  29        -0.09324326
  30        -0.39453701
  31         1.41659568
  32        -0.13698895
  33         0.01487496
  34         0.00200739
  35        -1.03284580
  36         1.40770597
  37         0.06513330
  38         0.12113227
  39         0.01394190
  40        -0.00918211
  41        -0.06822069
  42         0.27857201
  43        -0.13470606
  44        -0.42975950
  45         2.54832146
  46        -0.00589817
  47         0.33156373
  48         0.01255400
  49         0.00294286
  50        -0.16542070
  51        -0.00624842
  52        -0.04159978
  53         0.00088778
  54         0.00983810
  55        -0.18713231
  56        -0.00670023
  57        -0.09324318
  58        -0.39453667
  59         1.41659497
  60         0.13637147
  61         0.01983958
  62        -0.00068244
  63         0.98210976
  64         1.44439596
  65         0.04279175
  66         0.12161330
  67        -0.00743872
  68        -0.00223147
  69        -0.04795877
  70        -0.28294513
  71         0.09324206
  72         0.39453109
  73        -1.41659766
  74        -0.13698680
  75         0.01487641
  76         0.00199755
  77        -1.03284412
  78         1.40769845
  79         0.06514206
  80        -0.12113209
  81        -0.01394096
  82         0.00918009
  83         0.06821793
  84        -0.27857117
  85         0.45753522
  86        -0.24372271
  87        -0.22417518
  88        -0.36430200
  89        -0.01125430
  90        -0.45753344
  91         0.24372252
  92         0.23698890
  93        -0.35592026
  94        -0.01602988
  95        -0.45753314
  96         0.24372225
  97        -0.22417702
  98        -0.36430507
  99        -0.01125056
 100         0.45753561
 101        -0.24372295
 102         0.23698722
 103        -0.35591823
 104        -0.01601028
Sym=    73a  
Ene=     1.8347
Spin= Alpha
Occup=    0.00000
   1         0.00000001
   2         0.00000008
   3         0.00000032
   4        -0.37369077
   5        -0.00681037
   6         0.00429586
   7        -0.47764307
   8        -0.00870279
   9         0.00544381
  10         0.00001725
  11        -0.00085138
  12         0.00024122
  13         0.00078461
  14        -0.02178008
  15         0.07614446
  16         0.39232629
  17         0.24477756
  18        -0.07652402
  19        -0.48078460
  20        -0.01716910
  21        -1.33967368
  22        -0.96975846
  23        -0.02027386
  24         0.04605099
  25         0.00081845
  26         0.00748851
  27        -0.25155435
  28        -0.08436270
  29        -0.07614480
  30        -0.39232767
  31        -0.24477417
  32         0.09357433
  33        -0.47768555
  34        -0.01909845
  35         1.37329845
  36        -0.92032569
  37        -0.05123425
  38        -0.04593806
  39        -0.00656545
  40        -0.00586556
  41         0.25697081
  42        -0.06597399
  43        -0.00000003
  44        -0.00000006
  45         0.00000082
  46         0.37369003
  47         0.00680980
  48        -0.00427917
  49         0.47764451
  50         0.00870383
  51        -0.00547105
  52         0.00001595
  53        -0.00080459
  54         0.00023606
  55         0.00078499
  56        -0.02178182
  57         0.07614469
  58         0.39232712
  59         0.24477396
  60         0.07652371
  61         0.48078590
  62         0.01713022
  63         1.33967492
  64         0.96976122
  65         0.02022586
  66         0.04604735
  67         0.00081568
  68         0.00741954
  69        -0.25155821
  70        -0.08436184
  71        -0.07614455
  72        -0.39232675
  73        -0.24477766
  74        -0.09357374
  75         0.47768421
  76         0.01913984
  77        -1.37329599
  78         0.92032247
  79         0.05130068
  80        -0.04594403
  81        -0.00653401
  82        -0.00595880
  83         0.25696665
  84        -0.06597799
  85        -0.25179484
  86        -0.03474649
  87         0.18999575
  88         0.42609096
  89         0.01372474
  90         0.25179224
  91         0.03474861
  92        -0.20502691
  93         0.41889395
  94         0.01823741
  95        -0.25179213
  96        -0.03474862
  97        -0.18999480
  98        -0.42609372
  99        -0.01367979
 100         0.25179494
 101         0.03474652
 102         0.20502675
 103        -0.41889125
 104        -0.01828122
Sym=    74a  
Ene=     1.8814
Spin= Alpha
Occup=    0.00000
   1         0.31768664
   2         1.33523795
   3        -2.23582046
   4        -0.00325103
   5         0.18274738
   6         0.00691420
   7        -0.00077695
   8         0.04367814
   9         0.00164097
  10        -0.09902500
  11         0.00017181
  12         0.01444138
  13        -0.20906042
  14        -0.00745649
  15         0.18623128
  16         0.79984182
  17        -0.10732855
  18         0.12829767
  19        -0.23208417
  20        -0.01025096
  21         0.04063107
  22         0.65189474
  23         0.02404766
  24         0.21991409
  25        -0.00260417
  26        -0.02566952
  27         0.32843936
  28        -0.08560167
  29         0.18623360
  30         0.79985086
  31        -0.10735842
  32         0.11995645
  33         0.23660963
  34         0.00746270
  35         0.06377319
  36        -0.64998962
  37        -0.02524308
  38         0.21976990
  39         0.00478150
  40        -0.02780277
  41         0.32143533
  42         0.10868465
  43         0.31768104
  44         1.33521617
  45        -2.23575439
  46         0.00325102
  47        -0.18274130
  48        -0.00690246
  49         0.00077663
  50        -0.04367146
  51        -0.00167138
  52        -0.09902268
  53         0.00015833
  54         0.01443185
  55        -0.20905903
  56        -0.00745601
  57         0.18623367
  58         0.79985120
  59        -0.10735847
  60        -0.12829396
  61         0.23208676
  62         0.01028764
  63        -0.04061349
  64        -0.65189265
  65        -0.02402199
  66         0.21991850
  67        -0.00258801
  68        -0.02566213
  69         0.32843617
  70        -0.08560299
  71         0.18623128
  72         0.79984177
  73        -0.10732907
  74        -0.11995985
  75        -0.23660594
  76        -0.00745939
  77        -0.06379049
  78         0.64999245
  79         0.02522884
  80         0.21976892
  81         0.00480089
  82        -0.02774848
  83         0.32144121
  84         0.10868396
  85        -0.31527257
  86         0.17380685
  87         0.01538454
  88        -0.11276573
  89        -0.00450600
  90        -0.31526919
  91         0.17380263
  92         0.01136387
  93         0.11325613
  94         0.00405743
  95        -0.31526915
  96         0.17380249
  97        -0.01538518
  98         0.11276534
  99         0.00444767
 100        -0.31527238
 101         0.17380679
 102        -0.01136444
 103        -0.11325662
 104        -0.00411053
Sym=    75a  
Ene=     1.8965
Spin= Alpha
Occup=    0.00000
   1        -0.00004596
   2        -0.00018175
   3         0.00053596
   4        -0.00209612
   5         0.00346603
   6        -0.09317641
   7         0.00515536
   8        -0.01085135
   9         0.28587638
  10        -0.00778321
  11         0.00206076
  12        -0.11895485
  13        -0.00444584
  14        -0.00163255
  15        -0.00036979
  16        -0.00157383
  17         0.00195351
  18        -0.00265132
  19         0.00769915
  20        -0.20318216
  21        -0.00046263
  22         0.00294841
  23        -0.07057178
  24        -0.02001934
  25         0.17759206
  26        -0.24173330
  27        -0.00669569
  28        -0.01016060
  29        -0.00044165
  30        -0.00184440
  31         0.00325730
  32        -0.00261466
  33         0.00757023
  34        -0.20318750
  35        -0.00005396
  36         0.00274043
  37        -0.07058461
  38         0.01205544
  39         0.16912779
  40         0.24825411
  41         0.01164934
  42        -0.00277004
  43         0.00007869
  44         0.00032024
  45        -0.00075545
  46        -0.00209110
  47         0.00345358
  48        -0.09317656
  49         0.00516824
  50        -0.01085978
  51         0.28587627
  52         0.00777600
  53        -0.00206053
  54         0.11895602
  55         0.00442613
  56         0.00163627
  57         0.00040625
  58         0.00171840
  59        -0.00220969
  60        -0.00266645
  61         0.00771513
  62        -0.20318145
  63        -0.00040432
  64         0.00280618
  65        -0.07057793
  66         0.02005929
  67        -0.17759110
  68         0.24172991
  69         0.00673274
  70         0.01016094
  71         0.00044144
  72         0.00185416
  73        -0.00302120
  74        -0.00262746
  75         0.00753360
  76        -0.20318864
  77        -0.00011160
  78         0.00272371
  79        -0.07058444
  80        -0.01203932
  81        -0.16912750
  82        -0.24825580
  83        -0.01162364
  84         0.00279225
  85        -0.00107388
  86         0.00078568
  87         0.00714108
  88        -0.02070375
  89         0.54856988
  90        -0.00116273
  91         0.00094633
  92         0.00716613
  93        -0.02058072
  94         0.54857410
  95         0.00106365
  96        -0.00080137
  97         0.00713567
  98        -0.02069269
  99         0.54857030
 100         0.00110353
 101        -0.00089459
 102         0.00717205
 103        -0.02058529
 104         0.54857391
Sym=    76a  
Ene=     1.9013
Spin= Alpha
Occup=    0.00000
   1        -0.00000098
   2        -0.00000377
   3         0.00001132
   4        -0.47364792
   5        -0.00863932
   6         0.00560434
   7         0.81646161
   8         0.01489889
   9        -0.00992391
  10         0.00005629
  11        -0.00200459
  12         0.00081603
  13         0.00191337
  14        -0.05283553
  15        -0.19334775
  16        -0.81713356
  17         1.22282061
  18        -0.08728005
  19         0.02853017
  20         0.00255951
  21         0.27927783
  22         0.05130742
  23        -0.00128975
  24        -0.26788329
  25        -0.01755954
  26         0.01641607
  27         0.12725450
  28        -0.26650701
  29        -0.19334844
  30        -0.81713585
  31         1.22283849
  32        -0.08620772
  33        -0.03172277
  34         0.00027071
  35         0.28092291
  36        -0.04110643
  37        -0.00483229
  38        -0.26835732
  39         0.00308000
  40         0.00958838
  41         0.10769540
  42         0.27539922
  43         0.00000085
  44         0.00000325
  45        -0.00001045
  46        -0.47364977
  47        -0.00863905
  48         0.00559817
  49         0.81646277
  50         0.01489830
  51        -0.00990778
  52        -0.00005583
  53         0.00200586
  54        -0.00080908
  55        -0.00191302
  56         0.05283584
  57         0.19334728
  58         0.81713127
  59        -1.22282425
  60        -0.08728048
  61         0.02852750
  62         0.00257139
  63         0.27927401
  64         0.05130547
  65        -0.00130477
  66         0.26788335
  67         0.01757305
  68        -0.01641243
  69        -0.12725293
  70         0.26650648
  71         0.19334876
  72         0.81713753
  73        -1.22283479
  74        -0.08620699
  75        -0.03172474
  76         0.00026960
  77         0.28092687
  78        -0.04110998
  79        -0.00481555
  80         0.26835784
  81        -0.00306477
  82        -0.00957066
  83        -0.10769606
  84        -0.27539983
  85        -0.52067984
  86         0.40740335
  87         0.25161589
  88        -0.03216360
  89        -0.00540044
  90        -0.52068309
  91         0.40740521
  92         0.25030838
  93         0.04139437
  94        -0.00260227
  95         0.52068100
  96        -0.40740300
  97         0.25161618
  98        -0.03216143
  99        -0.00541682
 100         0.52068221
 101        -0.40740569
 102         0.25030756
 103         0.04139678
 104        -0.00262321
Sym=    77a  
Ene=     1.9095
Spin= Alpha
Occup=    0.00000
   1         0.36276978
   2         1.41886826
   3        -4.12284595
   4        -0.00793813
   5         0.44614864
   6         0.01687019
   7        -0.00793274
   8         0.44609149
   9         0.01692127
  10        -0.22918718
  11        -0.00267427
  12         0.02249885
  13        -0.19818760
  14        -0.00696763
  15        -0.21196275
  16        -0.83112945
  17         3.05415654
  18         0.19894846
  19         0.22520529
  20         0.00604987
  21         1.02361175
  22        -0.44163896
  23        -0.02900517
  24        -0.31807070
  25        -0.01161237
  26         0.01367137
  27         0.20813445
  28        -0.06486379
  29         0.21195902
  30         0.83111367
  31        -3.05414811
  32        -0.20683192
  33         0.21780874
  34         0.01067386
  35        -1.00723959
  36        -0.47863638
  37        -0.00580243
  38         0.31817228
  39         0.00616318
  40        -0.01213113
  41        -0.20291387
  42        -0.08014826
  43        -0.36277379
  44        -1.41888541
  45         4.12287672
  46        -0.00793811
  47         0.44615079
  48         0.01687624
  49        -0.00793284
  50         0.44609150
  51         0.01691497
  52         0.22918821
  53         0.00267643
  54        -0.02250340
  55         0.19818995
  56         0.00696759
  57         0.21196019
  58         0.83111862
  59        -3.05415565
  60         0.19895018
  61         0.22520236
  62         0.00605093
  63         1.02361226
  64        -0.44163132
  65        -0.02900144
  66         0.31806759
  67         0.01162211
  68        -0.01367256
  69        -0.20813831
  70         0.06486546
  71        -0.21196156
  72        -0.83112443
  73         3.05414921
  74        -0.20683035
  75         0.21781165
  76         0.01067212
  77        -1.00723897
  78        -0.47864368
  79        -0.00581992
  80        -0.31817515
  81        -0.00615201
  82         0.01213447
  83         0.20291032
  84         0.08014557
  85        -0.41704779
  86         0.45848140
  87         0.09124041
  88        -0.07155684
  89        -0.00374774
  90         0.41704947
  91        -0.45848174
  92        -0.08863331
  93        -0.07483733
  94        -0.00166340
  95         0.41705256
  96        -0.45848419
  97         0.09124039
  98        -0.07155818
  99        -0.00376415
 100        -0.41704475
 101         0.45847899
 102        -0.08863335
 103        -0.07483496
 104        -0.00167266
Sym=    78a  
Ene=     1.9523
Spin= Alpha
Occup=    0.00000
   1        -0.00002340
   2        -0.00009262
   3         0.00024603
   4        -0.00463679
   5         0.01430736
   6        -0.38032488
   7         0.00605948
   8        -0.01886249
   9         0.49949195
  10        -0.01760069
  11         0.00465413
  12        -0.26817630
  13        -0.01004538
  14        -0.00343557
  15        -0.00000509
  16        -0.00001296
  17         0.00012014
  18        -0.00239500
  19         0.00735391
  20        -0.19705278
  21        -0.00416502
  22         0.01251633
  23        -0.33388883
  24         0.00953913
  25         0.26073116
  26         0.23010112
  27         0.01179642
  28        -0.00705200
  29         0.00002039
  30         0.00007135
  31        -0.00017581
  32         0.00238839
  33        -0.00743774
  34         0.19705040
  35         0.00414052
  36        -0.01267321
  37         0.33388328
  38         0.02002408
  39        -0.26854977
  40         0.22022471
  41         0.00506887
  42         0.01277398
  43         0.00002255
  44         0.00009242
  45        -0.00023303
  46         0.00462366
  47        -0.01430219
  48         0.38032608
  49        -0.00605869
  50         0.01874020
  51        -0.49949734
  52        -0.01761228
  53         0.00465361
  54        -0.26817574
  55        -0.01003674
  56        -0.00344029
  57        -0.00002185
  58        -0.00007239
  59         0.00042696
  60         0.00238812
  61        -0.00736963
  62         0.19705242
  63         0.00396845
  64        -0.01241041
  65         0.33389527
  66         0.00952301
  67         0.26073254
  68         0.23010218
  69         0.01178647
  70        -0.00702265
  71         0.00000243
  72        -0.00000570
  73        -0.00033722
  74        -0.00238670
  75         0.00747036
  76        -0.19704901
  77        -0.00399463
  78         0.01270822
  79        -0.33388363
  80         0.02002356
  81        -0.26854886
  82         0.22022484
  83         0.00506337
  84         0.01278366
  85        -0.00008200
  86         0.00001928
  87         0.00522387
  88        -0.01623761
  89         0.43165510
  90         0.00005670
  91        -0.00001875
  92        -0.00523978
  93         0.01628910
  94        -0.43165519
  95        -0.00002460
  96         0.00003509
  97        -0.00522004
  98         0.01621190
  99        -0.43165661
 100         0.00001323
 101        -0.00003075
 102         0.00524041
 103        -0.01628290
 104         0.43165492
Sym=    79a  
Ene=     1.9591
Spin= Alpha
Occup=    0.00000
   1        -0.00007542
   2        -0.00031422
   3         0.00061875
   4        -0.00001467
   5         0.00001859
   6         0.00000147
   7         0.00003386
   8        -0.00014137
   9        -0.00000651
  10         0.00140151
  11        -0.07022832
  12        -0.00131060
  13        -0.00089315
  14         0.00262774
  15        -0.00001355
  16        -0.00006507
  17        -0.00023080
  18         0.00201171
  19        -0.00627991
  20         0.16804532
  21        -0.00025284
  22         0.00041288
  23        -0.00954325
  24         0.01828052
  25        -0.35196083
  26         0.16731154
  27         0.00203804
  28         0.01525922
  29        -0.00000984
  30        -0.00003310
  31         0.00022665
  32         0.00200699
  33        -0.00632176
  34         0.16804346
  35         0.00003454
  36         0.00050120
  37        -0.00954412
  38        -0.00453445
  39        -0.34592644
  40        -0.18032392
  41        -0.01100198
  42         0.01080369
  43         0.00000523
  44         0.00001407
  45        -0.00018552
  46        -0.00000910
  47         0.00001116
  48        -0.00000008
  49        -0.00000445
  50        -0.00009031
  51        -0.00000257
  52         0.00138939
  53        -0.07022849
  54        -0.00131056
  55        -0.00087349
  56         0.00262976
  57        -0.00000119
  58        -0.00000042
  59         0.00011365
  60        -0.00201733
  61         0.00630149
  62        -0.16804473
  63        -0.00003264
  64        -0.00028318
  65         0.00955125
  66         0.01828711
  67        -0.35195817
  68         0.16731044
  69         0.00202090
  70         0.01531744
  71        -0.00001614
  72        -0.00006865
  73        -0.00015938
  74        -0.00201336
  75         0.00635182
  76        -0.16804192
  77         0.00025491
  78        -0.00037442
  79         0.00954571
  80        -0.00452713
  81        -0.34592526
  82        -0.18032543
  83        -0.01099946
  84         0.01083414
  85        -0.00002351
  86        -0.00002425
  87        -0.00656339
  88         0.02038790
  89        -0.54256983
  90         0.00008412
  91        -0.00000719
  92        -0.00656820
  93         0.02039294
  94        -0.54256832
  95         0.00010267
  96        -0.00003243
  97         0.00657985
  98        -0.02042731
  99         0.54256821
 100        -0.00001464
 101        -0.00002077
 102         0.00657716
 103        -0.02041967
 104         0.54256707
Sym=    80a  
Ene=     2.0164
Spin= Alpha
Occup=    0.00000
   1        -0.59418382
   2        -2.41265964
   3         5.91721317
   4        -0.00461136
   5         0.25923294
   6         0.00982507
   7         0.03362559
   8        -1.89025463
   9        -0.07156884
  10         0.13114036
  11         0.00413452
  12        -0.00369903
  13        -0.12706180
  14        -0.00467591
  15         0.03950020
  16         0.03871341
  17        -4.25564179
  18        -0.02560714
  19         0.26598202
  20         0.01033882
  21        -2.04839818
  22         1.53168811
  23         0.08241638
  24         0.10284767
  25        -0.00813054
  26        -0.00883242
  27         0.13049213
  28        -0.23191679
  29        -0.03949969
  30        -0.03871156
  31         4.25563962
  32         0.01613075
  33         0.26674497
  34         0.00979987
  35         1.99259198
  36         1.60532463
  37         0.03623382
  38        -0.10249754
  39        -0.00983877
  40         0.01385045
  41        -0.11347409
  42        -0.24055028
  43         0.59418341
  44         2.41265811
  45        -5.91721305
  46        -0.00461163
  47         0.25923373
  48         0.00980395
  49         0.03362602
  50        -1.89025678
  51        -0.07153302
  52        -0.13113813
  53        -0.00413078
  54         0.00372326
  55         0.12706168
  56         0.00467602
  57        -0.03949963
  58        -0.03871132
  59         4.25563956
  60        -0.02560747
  61         0.26598119
  62         0.01036086
  63        -2.04839756
  64         1.53169180
  65         0.08240093
  66        -0.10284883
  67         0.00816425
  68         0.00882278
  69        -0.13049148
  70         0.23191553
  71         0.03950028
  72         0.03871371
  73        -4.25564187
  74         0.01613076
  75         0.26674303
  76         0.00984976
  77         1.99259344
  78         1.60532018
  79         0.03627159
  80         0.10249797
  81         0.00989347
  82        -0.01382914
  83         0.11347618
  84         0.24054840
  85        -0.47026236
  86        -0.27041709
  87         0.01592672
  88        -0.27822448
  89        -0.01067311
  90         0.47026297
  91         0.27041756
  92        -0.00601893
  93        -0.27862845
  94        -0.01035772
  95         0.47026302
  96         0.27041745
  97         0.01592496
  98        -0.27822442
  99        -0.01071766
 100        -0.47026233
 101        -0.27041722
 102        -0.00602177
 103        -0.27862213
 104        -0.01048460
Sym=    81a  
Ene=     2.1039
Spin= Alpha
Occup=    0.00000
   1         0.00001381
   2         0.00006583
   3        -0.00008285
   4        -0.00070038
   5         0.00255853
   6        -0.06887093
   7        -0.00419250
   8         0.01260362
   9        -0.33409957
  10         0.01034846
  11        -0.00273939
  12         0.15779098
  13         0.00593015
  14         0.00200944
  15        -0.00002525
  16        -0.00008989
  17         0.00000302
  18        -0.00157199
  19         0.00480296
  20        -0.12707520
  21         0.00255505
  22        -0.00765203
  23         0.20074221
  24         0.04589637
  25         0.03413360
  26         0.71513693
  27         0.02734105
  28         0.00743801
  29        -0.00007751
  30        -0.00030497
  31         0.00029399
  32         0.00152758
  33        -0.00482901
  34         0.12707442
  35        -0.00228697
  36         0.00769314
  37        -0.20074404
  38         0.04771882
  39        -0.05893105
  40         0.71340146
  41         0.02619690
  42         0.01084691
  43        -0.00001151
  44        -0.00003870
  45         0.00013258
  46         0.00102333
  47        -0.00256284
  48         0.06886755
  49         0.00388994
  50        -0.01254939
  51         0.33410595
  52         0.01035542
  53        -0.00273841
  54         0.15779087
  55         0.00593166
  56         0.00203195
  57         0.00005682
  58         0.00020697
  59        -0.00033517
  60         0.00157060
  61        -0.00470896
  62         0.12707837
  63        -0.00222774
  64         0.00738019
  65        -0.20075654
  66         0.04603570
  67         0.03413390
  68         0.71513155
  69         0.02728380
  70         0.00731900
  71         0.00001060
  72         0.00001813
  73         0.00011626
  74        -0.00152558
  75         0.00474497
  76        -0.12707789
  77         0.00246708
  78        -0.00748141
  79         0.20074970
  80         0.04786654
  81        -0.05892197
  82         0.71339288
  83         0.02613251
  84         0.01095179
  85         0.00008193
  86         0.00000418
  87        -0.00360046
  88         0.01122300
  89        -0.29734158
  90         0.00000573
  91         0.00006202
  92         0.00360580
  93        -0.01119252
  94         0.29734217
  95        -0.00003451
  96        -0.00006165
  97         0.00361490
  98        -0.01113554
  99         0.29734429
 100        -0.00006126
 101         0.00000271
 102        -0.00358870
 103         0.01112455
 104        -0.29734545
Sym=    82a  
Ene=     2.1140
Spin= Alpha
Occup=    0.00000
   1         0.00000006
   2         0.00000023
   3        -0.00000046
   4         0.86163499
   5         0.01570005
   6        -0.00983744
   7        -0.70317681
   8        -0.01281509
   9         0.00809209
  10         0.00005971
  11        -0.00313688
  12         0.00085089
  13         0.00295944
  14        -0.08219146
  15        -0.28588929
  16        -1.05609330
  17         0.97844104
  18        -0.01010567
  19         0.34913578
  20         0.01327599
  21         0.83082424
  22        -0.75667369
  23        -0.03857019
  24        -0.44374922
  25         0.00093877
  26         0.02088788
  27         0.11217046
  28         0.30900821
  29        -0.28588906
  30        -1.05609234
  31         0.97843599
  32         0.00231959
  33        -0.34927885
  34        -0.01317715
  35         0.80337326
  36         0.78644981
  37         0.01992012
  38        -0.44329486
  39        -0.02222313
  40         0.02739349
  41         0.13408872
  42        -0.29947250
  43        -0.00000008
  44        -0.00000034
  45         0.00000070
  46         0.86163520
  47         0.01570069
  48        -0.00985508
  49        -0.70317994
  50        -0.01280986
  51         0.00795304
  52        -0.00006444
  53         0.00313336
  54        -0.00092458
  55        -0.00296228
  56         0.08219060
  57         0.28588901
  58         1.05609218
  59        -0.97843514
  60        -0.01010469
  61         0.34913825
  62         0.01324140
  63         0.83082447
  64        -0.75667599
  65        -0.03848096
  66         0.44373319
  67        -0.00094753
  68        -0.02112745
  69        -0.11218033
  70        -0.30901002
  71         0.28588935
  72         1.05609349
  73        -0.97844204
  74         0.00231862
  75        -0.34927916
  76        -0.01313942
  77         0.80337297
  78         0.78645444
  79         0.01982272
  80         0.44327959
  81         0.02222659
  82        -0.02763514
  83        -0.13409707
  84         0.29947020
  85         0.28748927
  86         0.18990772
  87         0.03836668
  88         0.19737781
  89         0.00700219
  90         0.28748926
  91         0.18990802
  92         0.04536048
  93        -0.19584989
  94        -0.00800073
  95        -0.28748952
  96        -0.18990791
  97         0.03836529
  98         0.19738119
  99         0.00689140
 100        -0.28748896
 101        -0.18990788
 102         0.04536198
 103        -0.19585510
 104        -0.00787902
Sym=    83a  
Ene=     2.2016
Spin= Alpha
Occup=    0.00000
   1         0.23636446
   2         0.99348183
   3        -1.41254585
   4        -0.00137395
   5         0.07721957
   6         0.00291493
   7         0.00228569
   8        -0.12845974
   9        -0.00484813
  10         0.03505055
  11         0.00198204
  12         0.00219007
  13        -0.11746415
  14        -0.00425698
  15         0.09801780
  16         0.21737352
  17        -2.68488680
  18         0.04478310
  19         0.89958759
  20         0.03328729
  21         0.04599860
  22         1.20248645
  23         0.04466025
  24         0.55317906
  25         0.00779663
  26        -0.05593091
  27         0.50762488
  28         0.06297866
  29        -0.09801642
  30        -0.21736659
  31         2.68487899
  32        -0.07674881
  33         0.89737149
  34         0.03468887
  35        -0.08874134
  36         1.20003131
  37         0.04622914
  38        -0.55324082
  39        -0.00437973
  40         0.05506005
  41        -0.51086380
  42         0.02711280
  43        -0.23636903
  44        -0.99350224
  45         1.41256992
  46        -0.00137392
  47         0.07721402
  48         0.00291384
  49         0.00228524
  50        -0.12845343
  51        -0.00485554
  52        -0.03504867
  53        -0.00200266
  54        -0.00219677
  55         0.11746045
  56         0.00425753
  57        -0.09801661
  58        -0.21736720
  59         2.68488030
  60         0.04478231
  61         0.89958594
  62         0.03330006
  63         0.04600177
  64         1.20248759
  65         0.04467731
  66        -0.55317970
  67        -0.00780827
  68         0.05593494
  69        -0.50762219
  70        -0.06297383
  71         0.09801781
  72         0.21737354
  73        -2.68488774
  74        -0.07674948
  75         0.89737233
  76         0.03470155
  77        -0.08873735
  78         1.20003007
  79         0.04623009
  80         0.55323866
  81         0.00436817
  82        -0.05508404
  83         0.51086591
  84        -0.02711683
  85         0.24353401
  86        -0.33467706
  87        -0.08522243
  88         0.01225426
  89         0.00145242
  90        -0.24353388
  91         0.33467591
  92         0.08473166
  93         0.01534388
  94        -0.00041766
  95        -0.24353374
  96         0.33467614
  97        -0.08522264
  98         0.01224962
  99         0.00145524
 100         0.24353412
 101        -0.33467714
 102         0.08473159
 103         0.01534770
 104        -0.00039546
Sym=    84a  
Ene=     2.2149
Spin= Alpha
Occup=    0.00000
   1        -0.32882401
   2        -1.48635967
   3         1.71873029
   4        -0.00917916
   5         0.51598603
   6         0.01951435
   7         0.00878898
   8        -0.49406599
   9        -0.01869998
  10         0.14168802
  11         0.00552003
  12        -0.00016573
  13        -0.23847200
  14        -0.00869605
  15         0.13248404
  16         0.63667433
  17        -0.68001193
  18         0.12845867
  19         0.05771676
  20         0.00059752
  21        -0.23202531
  22        -0.10678189
  23        -0.00121189
  24        -0.04441544
  25         0.00680251
  26        -0.01135882
  27         0.28430940
  28         0.29687676
  29         0.13248547
  30         0.63667766
  31        -0.68005505
  32         0.13043072
  33        -0.05301029
  34        -0.00357669
  35        -0.23567457
  36         0.09824140
  37         0.00656018
  38        -0.04397905
  39        -0.01498252
  40        -0.00520602
  41         0.30493748
  42        -0.27558269
  43        -0.32882235
  44        -1.48635229
  45         1.71872324
  46         0.00917899
  47        -0.51598771
  48        -0.01951948
  49        -0.00878879
  50         0.49407067
  51         0.01870881
  52         0.14168850
  53         0.00552635
  54        -0.00015877
  55        -0.23847346
  56        -0.00869626
  57         0.13248529
  58         0.63667700
  59        -0.68005313
  60        -0.12846070
  61        -0.05772827
  62        -0.00059639
  63         0.23202745
  64         0.10676523
  65         0.00120108
  66        -0.04441081
  67         0.00683177
  68        -0.01138612
  69         0.28431530
  70         0.29687465
  71         0.13248415
  72         0.63667476
  73        -0.68001379
  74        -0.13042838
  75         0.05299926
  76         0.00356828
  77         0.23567288
  78        -0.09825915
  79        -0.00654970
  80        -0.04398754
  81        -0.01500536
  82        -0.00523434
  83         0.30492970
  84        -0.27558342
  85         0.01654725
  86        -0.06197379
  87         0.06121777
  88         0.40082794
  89         0.01432440
  90         0.01655012
  91        -0.06197781
  92         0.07543421
  93        -0.39833700
  94        -0.01587929
  95         0.01655010
  96        -0.06197746
  97        -0.06121790
  98        -0.40082575
  99        -0.01435143
 100         0.01654739
 101        -0.06197409
 102        -0.07543421
 103         0.39833731
 104         0.01590340
Sym=    85a  
Ene=     2.2451
Spin= Alpha
Occup=    0.00000
   1         0.00000004
   2         0.00000021
   3        -0.00000007
   4         0.20686974
   5         0.00376919
   6        -0.00236014
   7         0.15583687
   8         0.00284058
   9        -0.00180364
  10         0.00007013
  11        -0.00353031
  12         0.00100955
  13         0.00334997
  14        -0.09298086
  15        -0.29900595
  16        -1.06135072
  17         4.27022812
  18         0.33860655
  19        -0.60823914
  20        -0.02696730
  21         1.01807318
  22        -1.38321157
  23        -0.06433259
  24        -0.53008537
  25        -0.01482302
  26         0.04367961
  27        -0.19000523
  28        -0.15970687
  29         0.29900596
  30         1.06135046
  31        -4.27023007
  32        -0.31675393
  33        -0.62017949
  34        -0.01949950
  35        -0.96821669
  36        -1.41940342
  37        -0.04168225
  38         0.53031390
  39         0.00319752
  40        -0.04040393
  41         0.20103216
  42        -0.14641511
  43         0.00000009
  44         0.00000041
  45        -0.00000035
  46        -0.20686975
  47        -0.00376919
  48         0.00235989
  49        -0.15583823
  50        -0.00284072
  51         0.00180800
  52         0.00007065
  53        -0.00353568
  54         0.00101559
  55         0.00335011
  56        -0.09298066
  57        -0.29900597
  58        -1.06135057
  59         4.27022943
  60        -0.33860635
  61         0.60823822
  62         0.02697194
  63        -1.01807295
  64         1.38321063
  65         0.06435546
  66        -0.53007996
  67        -0.01488830
  68         0.04374634
  69        -0.19000347
  70        -0.15970358
  71         0.29900591
  72         1.06135053
  73        -4.27022711
  74         0.31675396
  75         0.62018002
  76         0.01949286
  77         0.96821681
  78         1.41940230
  79         0.04169673
  80         0.53031467
  81         0.00322700
  82        -0.04037385
  83         0.20103351
  84        -0.14641585
  85        -0.07644106
  86         0.65945919
  87         0.30373860
  88        -0.15979653
  89        -0.00967675
  90         0.07644171
  91        -0.65945956
  92        -0.29785792
  93        -0.17075777
  94        -0.00282402
  95        -0.07644177
  96         0.65945946
  97        -0.30373741
  98         0.15979449
  99         0.00973580
 100         0.07644087
 101        -0.65945908
 102         0.29785785
 103         0.17075910
 104         0.00278390
Sym=    86a  
Ene=     2.2619
Spin= Alpha
Occup=    0.00000
   1         0.00003292
   2         0.00013209
   3        -0.00026646
   4        -0.00001021
   5         0.00000833
   6         0.00000046
   7        -0.00001134
   8         0.00005233
   9         0.00000211
  10        -0.00083188
  11         0.04230905
  12         0.00078935
  13         0.00052660
  14        -0.00157595
  15         0.00000898
  16         0.00001382
  17        -0.00025610
  18         0.00037178
  19        -0.00099944
  20         0.03023584
  21        -0.00003409
  22         0.00010859
  23        -0.00043261
  24        -0.03821170
  25         0.48152674
  26        -0.43195764
  27        -0.01038263
  28        -0.02332577
  29        -0.00000770
  30        -0.00000070
  31         0.00023493
  32        -0.00040830
  33         0.00123733
  34        -0.03022630
  35         0.00003942
  36         0.00011364
  37         0.00044086
  38        -0.01964834
  39        -0.46622399
  40        -0.44961903
  41        -0.02265016
  42         0.01210868
  43        -0.00005717
  44        -0.00023816
  45         0.00041016
  46         0.00001556
  47        -0.00001520
  48        -0.00000075
  49         0.00000363
  50         0.00008237
  51         0.00000304
  52         0.00083138
  53        -0.04230851
  54        -0.00078894
  55        -0.00054050
  56         0.00158587
  57         0.00002580
  58         0.00011609
  59        -0.00022420
  60         0.00043461
  61        -0.00109623
  62         0.03023126
  63         0.00008218
  64        -0.00000603
  65        -0.00043826
  66         0.03826917
  67        -0.48152488
  68         0.43195242
  69         0.01041791
  70         0.02335725
  71        -0.00001214
  72        -0.00005351
  73         0.00016092
  74        -0.00040836
  75         0.00119439
  76        -0.03022804
  77        -0.00007743
  78        -0.00006350
  79         0.00043563
  80         0.01957870
  81         0.46622285
  82         0.44962373
  83         0.02263365
  84        -0.01210221
  85         0.00001351
  86        -0.00004568
  87         0.00573727
  88        -0.01786050
  89         0.47551198
  90        -0.00001430
  91         0.00003493
  92        -0.00576697
  93         0.01789584
  94        -0.47551063
  95        -0.00001632
  96        -0.00003060
  97         0.00578473
  98        -0.01791195
  99         0.47550981
 100         0.00001225
 101         0.00002010
 102        -0.00577800
 103         0.01790997
 104        -0.47550957
Sym=    87a  
Ene=     2.3306
Spin= Alpha
Occup=    0.00000
   1        -0.00000003
   2        -0.00000012
   3         0.00000019
   4        -0.11808227
   5        -0.00215193
   6         0.00135706
   7         1.67733970
   8         0.03056499
   9        -0.01920019
  10         0.00014970
  11        -0.00747341
  12         0.00215009
  13         0.00708160
  14        -0.19654475
  15        -0.13318985
  16        -0.45407952
  17         1.88191360
  18         0.11979174
  19         0.53882621
  20         0.01881071
  21         0.47147396
  22         0.31593669
  23         0.00620286
  24        -0.28356234
  25        -0.00217562
  26         0.03409944
  27        -0.40357902
  28        -0.02967521
  29        -0.13318953
  30        -0.45407856
  31         1.88191428
  32         0.13887905
  33        -0.53411395
  34        -0.02177431
  35         0.48240407
  36        -0.29855502
  37        -0.01709597
  38        -0.28358347
  39        -0.00101966
  40         0.03378676
  41        -0.40468211
  42         0.00098529
  43         0.00000004
  44         0.00000017
  45        -0.00000026
  46        -0.11808167
  47        -0.00215212
  48         0.00136292
  49         1.67734062
  50         0.03056482
  51        -0.01919688
  52        -0.00014950
  53         0.00747336
  54        -0.00214717
  55        -0.00708146
  56         0.19654482
  57         0.13318950
  58         0.45407847
  59        -1.88191388
  60         0.11979248
  61         0.53882706
  62         0.01882616
  63         0.47147279
  64         0.31593679
  65         0.00618452
  66         0.28356411
  67         0.00217417
  68        -0.03406462
  69         0.40357945
  70         0.02967540
  71         0.13318981
  72         0.45407935
  73        -1.88191383
  74         0.13887831
  75        -0.53411227
  76        -0.02178220
  77         0.48240525
  78        -0.29855641
  79        -0.01707477
  80         0.28358687
  81         0.00101421
  82        -0.03374377
  83         0.40468450
  84        -0.00098480
  85        -0.25334819
  86         0.05765652
  87        -0.30783338
  88        -0.36121471
  89        -0.00987354
  90        -0.25334855
  91         0.05765627
  92        -0.32048090
  93         0.34976527
  94         0.01705051
  95         0.25334862
  96        -0.05765626
  97        -0.30783321
  98        -0.36121446
  99        -0.00986293
 100         0.25334819
 101        -0.05765653
 102        -0.32048108
 103         0.34976610
 104         0.01704418
Sym=    88a  
Ene=     2.4433
Spin= Alpha
Occup=    0.00000
   1         0.00000727
   2         0.00003297
   3        -0.00003308
   4        -0.00045522
   5         0.00129435
   6        -0.03464500
   7         0.00509728
   8        -0.01578083
   9         0.41915871
  10        -0.04883484
  11         0.01290643
  12        -0.74368804
  13        -0.02786216
  14        -0.00952508
  15        -0.00000084
  16        -0.00001466
  17        -0.00010494
  18        -0.00136103
  19         0.00422873
  20        -0.11100013
  21        -0.00075651
  22         0.00227803
  23        -0.05921633
  24         0.00294340
  25        -0.33762332
  26        -0.06380226
  27        -0.00648422
  28         0.01189295
  29        -0.00000420
  30         0.00000805
  31         0.00028318
  32        -0.00136481
  33         0.00416095
  34        -0.11100306
  35        -0.00062040
  36         0.00224798
  37        -0.05921873
  38         0.01042693
  39        -0.33961782
  40         0.05117188
  41        -0.00221062
  42         0.01338939
  43        -0.00000740
  44        -0.00003094
  45         0.00004573
  46        -0.00039571
  47         0.00130242
  48        -0.03464521
  49         0.00521952
  50        -0.01577721
  51         0.41915667
  52         0.04883178
  53        -0.01290583
  54         0.74368640
  55         0.02786709
  56         0.00954655
  57        -0.00000598
  58        -0.00004563
  59        -0.00015603
  60        -0.00136405
  61         0.00419707
  62        -0.11100168
  63        -0.00059806
  64         0.00228684
  65        -0.05921754
  66        -0.00288260
  67         0.33762170
  68         0.06379645
  69         0.00651773
  70        -0.01193629
  71         0.00000869
  72         0.00004196
  73        -0.00001035
  74        -0.00132427
  75         0.00413446
  76        -0.11100410
  77        -0.00078947
  78         0.00225102
  79        -0.05921695
  80        -0.01048713
  81         0.33961680
  82        -0.05116713
  83         0.00217187
  84        -0.01341858
  85        -0.00002781
  86        -0.00000599
  87        -0.00147970
  88         0.00450358
  89        -0.12031200
  90        -0.00003756
  91         0.00001041
  92        -0.00150017
  93         0.00452892
  94        -0.12031063
  95         0.00003108
  96        -0.00000268
  97        -0.00150992
  98         0.00451329
  99        -0.12031110
 100         0.00001386
 101        -0.00000112
 102        -0.00144917
 103         0.00453898
 104        -0.12031108
Sym=    89a  
Ene=     2.4529
Spin= Alpha
Occup=    0.00000
   1         0.00000001
   2        -0.00000000
   3        -0.00000045
   4         0.33126082
   5         0.00603600
   6        -0.00378037
   7         1.66050004
   8         0.03025618
   9        -0.01894919
  10         0.00012017
  11        -0.00624815
  12         0.00175031
  13         0.00601674
  14        -0.16703995
  15         0.14785744
  16         0.89386664
  17         1.88570354
  18        -0.12719677
  19        -0.36668417
  20        -0.01222076
  21         1.55421724
  22         0.59798006
  23         0.00367583
  24        -0.54551818
  25         0.00472168
  26         0.05137082
  27        -0.50480491
  28         0.26732702
  29        -0.14785810
  30        -0.89386958
  31        -1.88570673
  32         0.14015652
  33        -0.36181151
  34        -0.01525535
  35        -1.57447971
  36         0.54097072
  37         0.03941608
  38         0.54508740
  39         0.01698657
  40        -0.05754676
  41         0.48428939
  42         0.30213780
  43        -0.00000000
  44        -0.00000006
  45        -0.00000036
  46        -0.33126286
  47        -0.00603581
  48         0.00377456
  49        -1.66050305
  50        -0.03025873
  51         0.01901826
  52         0.00012529
  53        -0.00625290
  54         0.00182785
  55         0.00601960
  56        -0.16703954
  57         0.14785812
  58         0.89386964
  59         1.88570658
  60         0.12719586
  61         0.36668197
  62         0.01222542
  63        -1.55421868
  64        -0.59797972
  65        -0.00368633
  66        -0.54551752
  67         0.00474974
  68         0.05139791
  69        -0.50480331
  70         0.26732731
  71        -0.14785741
  72        -0.89386653
  73        -1.88570323
  74        -0.14015753
  75         0.36181283
  76         0.01526513
  77         1.57447816
  78        -0.54097063
  79        -0.03942332
  80         0.54508602
  81         0.01702263
  82        -0.05754738
  83         0.48429008
  84         0.30213538
  85        -0.13529182
  86         0.05167218
  87        -0.42538635
  88        -0.01031865
  89         0.00474590
  90         0.13529269
  91        -0.05167232
  92         0.42547818
  93         0.00518552
  94        -0.00496974
  95        -0.13529243
  96         0.05167225
  97         0.42538693
  98         0.01031853
  99        -0.00475147
 100         0.13529219
 101        -0.05167219
 102        -0.42547781
 103        -0.00518474
 104         0.00495765
Sym=    90a  
Ene=     2.5055
Spin= Alpha
Occup=    0.00000
   1         0.15732646
   2         0.55294103
   3        -1.66261629
   4        -0.00243432
   5         0.13683894
   6         0.00518026
   7        -0.01068008
   8         0.60034672
   9         0.02271469
  10         0.47414249
  11         0.00827557
  12        -0.03655590
  13         0.14702639
  14         0.00494393
  15        -0.02369200
  16        -0.13687908
  17         0.05272075
  18         0.84372165
  19        -0.12486685
  20        -0.01491943
  21         0.03909185
  22        -0.11412327
  23        -0.00476091
  24        -0.00886151
  25         0.00865209
  26        -0.00574080
  27         0.08271262
  28         0.26215684
  29        -0.02369049
  30        -0.13687175
  31         0.05269558
  32         0.83871528
  33         0.15552111
  34        -0.00431822
  35         0.03500082
  36         0.11546080
  37         0.00391489
  38        -0.00847331
  39        -0.01109111
  40        -0.00015249
  41         0.10135930
  42        -0.25550512
  43         0.15732028
  44         0.55291696
  45        -1.66256397
  46         0.00243433
  47        -0.13684055
  48        -0.00518204
  49         0.01067973
  50        -0.60032659
  51        -0.02270877
  52         0.47413362
  53         0.00827449
  54        -0.03654650
  55         0.14702311
  56         0.00494395
  57        -0.02369062
  58        -0.13687242
  59         0.05269543
  60        -0.84370337
  61         0.12486434
  62         0.01491880
  63        -0.03908434
  64         0.11411141
  65         0.00475889
  66        -0.00886198
  67         0.00863138
  68        -0.00572141
  69         0.08271207
  70         0.26215315
  71        -0.02369188
  72        -0.13687847
  73         0.05272103
  74        -0.83873342
  75        -0.15552452
  76         0.00432498
  77        -0.03500795
  78        -0.11547287
  79        -0.00391793
  80        -0.00847043
  81        -0.01104818
  82        -0.00012763
  83         0.10136206
  84        -0.25551103
  85         0.76018053
  86        -0.04626400
  87         0.54935551
  88        -0.19984622
  89        -0.01414844
  90         0.76016370
  91        -0.04626529
  92         0.54187906
  93         0.21972460
  94         0.00170955
  95         0.76016389
  96        -0.04626525
  97        -0.54934312
  98         0.19984158
  99         0.01416199
 100         0.76018036
 101        -0.04626406
 102        -0.54189127
 103        -0.21972877
 104        -0.00172138
Sym=    91a  
Ene=     2.5132
Spin= Alpha
Occup=    0.00000
   1        -0.22244991
   2        -0.85993714
   3         1.96354494
   4        -0.00067003
   5         0.03767078
   6         0.00142636
   7         0.01492954
   8        -0.83924548
   9        -0.03176314
  10        -0.44118533
  11        -0.00757925
  12         0.03479681
  13        -0.15718806
  14        -0.00533067
  15         0.05596322
  16         0.27373593
  17        -1.07813447
  18        -0.84544339
  19         0.13531218
  20         0.01531176
  21        -0.17569043
  22         0.55772024
  23         0.02310191
  24        -0.07916121
  25        -0.00793941
  26         0.00990728
  27        -0.06575399
  28        -0.18865507
  29        -0.05596387
  30        -0.27373973
  31         1.07813593
  32         0.84010157
  33         0.16602829
  34        -0.00392153
  35         0.15574069
  36         0.56376233
  37         0.01932048
  38         0.07943696
  39        -0.00624019
  40        -0.00596031
  41         0.07916166
  42        -0.18355620
  43         0.22245333
  44         0.85994938
  45        -1.96358156
  46        -0.00067008
  47         0.03766801
  48         0.00142527
  49         0.01492966
  50        -0.83925895
  51        -0.03177032
  52         0.44119551
  53         0.00754333
  54        -0.03480819
  55         0.15719071
  56         0.00533202
  57        -0.05596380
  58        -0.27373942
  59         1.07813589
  60        -0.84546207
  61         0.13531555
  62         0.01532014
  63        -0.17569100
  64         0.55772311
  65         0.02310940
  66         0.07916076
  67         0.00792066
  68        -0.00991827
  69         0.06575507
  70         0.18866070
  71         0.05596328
  72         0.27373614
  73        -1.07813510
  74         0.84008289
  75         0.16602404
  76        -0.00392082
  77         0.15574042
  78         0.56375915
  79         0.01932379
  80        -0.07943649
  81         0.00622002
  82         0.00596073
  83        -0.07915972
  84         0.18355210
  85        -0.69927713
  86        -0.05095071
  87        -0.55327054
  88         0.18266466
  89         0.01357359
  90         0.69929455
  91         0.05094972
  92         0.54642752
  93         0.20270781
  94         0.00101353
  95         0.69929431
  96         0.05094975
  97        -0.55328294
  98         0.18266959
  99         0.01357039
 100        -0.69927730
 101        -0.05095074
 102         0.54641509
 103         0.20270310
 104         0.00099786
Sym=    92a  
Ene=     2.5454
Spin= Alpha
Occup=    0.00000
   1         0.00000812
   2         0.00001776
   3        -0.00014531
   4        -0.00003807
   5         0.00003395
   6         0.00000173
   7        -0.00025515
   8         0.00004789
   9         0.00000488
  10        -0.01575869
  11         0.79921655
  12         0.01490440
  13         0.01022958
  14        -0.02988015
  15        -0.00002569
  16        -0.00014798
  17        -0.00028513
  18         0.00288505
  19        -0.00858027
  20         0.23014765
  21        -0.00051139
  22         0.00082124
  23        -0.02501587
  24         0.01081800
  25         0.19929597
  26         0.22865114
  27         0.01112650
  28        -0.00471111
  29         0.00002413
  30         0.00013817
  31         0.00027840
  32         0.00289218
  33        -0.00857299
  34         0.23014847
  35        -0.00008071
  36         0.00089264
  37        -0.02501877
  38        -0.01888206
  39         0.20709594
  40        -0.22106766
  41        -0.00589499
  42        -0.01054688
  43         0.00002515
  44         0.00009177
  45        -0.00023376
  46         0.00004009
  47        -0.00000828
  48        -0.00000078
  49         0.00025491
  50        -0.00009237
  51        -0.00000648
  52        -0.01575995
  53         0.79921395
  54         0.01490377
  55         0.01025089
  56        -0.02988202
  57        -0.00002375
  58        -0.00014489
  59        -0.00024683
  60        -0.00292590
  61         0.00863637
  62        -0.23014572
  63         0.00049326
  64        -0.00080042
  65         0.02501719
  66         0.01082371
  67         0.19929516
  68         0.22865028
  69         0.01110161
  70        -0.00472708
  71         0.00002572
  72         0.00014649
  73         0.00022341
  74        -0.00285868
  75         0.00861607
  76        -0.23014664
  77         0.00010841
  78        -0.00085460
  79         0.02501953
  80        -0.01887458
  81         0.20709610
  82        -0.22107061
  83        -0.00586845
  84        -0.01055971
  85         0.00010906
  86        -0.00001994
  87        -0.00053865
  88         0.00204058
  89        -0.05408607
  90         0.00007175
  91         0.00001386
  92        -0.00063729
  93         0.00206201
  94        -0.05408406
  95         0.00015553
  96        -0.00000883
  97         0.00050871
  98        -0.00201339
  99         0.05408746
 100         0.00003269
 101        -0.00000336
 102         0.00066319
 103        -0.00204146
 104         0.05408449
Sym=    93a  
Ene=     2.6869
Spin= Alpha
Occup=    0.00000
   1        -0.00000425
   2        -0.00001471
   3         0.00004144
   4        -0.00061823
   5         0.00177646
   6        -0.04730792
   7        -0.00489674
   8         0.01564387
   9        -0.41608569
  10         0.04541131
  11        -0.01200970
  12         0.69192485
  13         0.02592473
  14         0.00883443
  15         0.00002969
  16         0.00012114
  17        -0.00019928
  18         0.00125062
  19        -0.00395117
  20         0.10497693
  21         0.00206327
  22        -0.00622695
  23         0.16934481
  24        -0.01526696
  25         0.53096785
  26        -0.06331371
  27         0.00400211
  28        -0.02076466
  29        -0.00001622
  30        -0.00004688
  31         0.00021857
  32        -0.00137383
  33         0.00388778
  34        -0.10497834
  35        -0.00203753
  36         0.00653361
  37        -0.16933372
  38         0.00563362
  39        -0.52842832
  40        -0.08307606
  41        -0.00944991
  42         0.01891611
  43        -0.00000635
  44        -0.00002939
  45         0.00000810
  46         0.00061187
  47        -0.00179247
  48         0.04730810
  49         0.00490130
  50        -0.01566107
  51         0.41608598
  52         0.04543522
  53        -0.01200864
  54         0.69192470
  55         0.02592879
  56         0.00885184
  57         0.00001109
  58         0.00003291
  59        -0.00014459
  60        -0.00136024
  61         0.00399203
  62        -0.10497457
  63        -0.00204651
  64         0.00624494
  65        -0.16934447
  66        -0.01525050
  67         0.53097157
  68        -0.06331462
  69         0.00397519
  70        -0.02071303
  71        -0.00003357
  72        -0.00014154
  73         0.00014563
  74         0.00128035
  75        -0.00395393
  76         0.10497648
  77         0.00205979
  78        -0.00649647
  79         0.16933471
  80         0.00567722
  81        -0.52842721
  82        -0.08307626
  83        -0.00950114
  84         0.01887545
  85        -0.00003412
  86        -0.00000549
  87         0.00277818
  88        -0.00875231
  89         0.23253364
  90        -0.00013594
  91         0.00004978
  92        -0.00286740
  93         0.00867879
  94        -0.23253582
  95         0.00011261
  96        -0.00004004
  97        -0.00286043
  98         0.00880029
  99        -0.23253134
 100         0.00003068
 101         0.00001009
 102         0.00278893
 103        -0.00874745
 104         0.23253368
Sym=    94a  
Ene=     2.7746
Spin= Alpha
Occup=    0.00000
   1         0.00000001
   2         0.00000001
   3        -0.00000037
   4         0.15916174
   5         0.00290035
   6        -0.00182125
   7        -0.12423488
   8        -0.00226283
   9         0.00139940
  10        -0.00006768
  11         0.00352884
  12        -0.00096760
  13        -0.00333191
  14         0.09252602
  15        -0.18539658
  16        -0.88559787
  17         0.04144381
  18         0.76576186
  19        -0.35658155
  20        -0.02265994
  21         0.02105766
  22        -0.05000514
  23        -0.00212933
  24         0.21608084
  25         0.02302794
  26        -0.00658470
  27        -0.32397451
  28         0.38691254
  29        -0.18539716
  30        -0.88559963
  31         0.04145132
  32         0.75258225
  33         0.38424594
  34         0.00536447
  35         0.01926662
  36         0.05074252
  37         0.00166146
  38         0.21667628
  39        -0.00735759
  40         0.00194496
  41        -0.29528533
  42        -0.40954120
  43        -0.00000003
  44        -0.00000010
  45         0.00000049
  46         0.15916264
  47         0.00290000
  48        -0.00181242
  49        -0.12423430
  50        -0.00226474
  51         0.00145136
  52         0.00007370
  53        -0.00352748
  54         0.00106046
  55         0.00333541
  56        -0.09252475
  57         0.18539719
  58         0.88559967
  59        -0.04145243
  60         0.76576111
  61        -0.35658102
  62        -0.02267013
  63         0.02105899
  64        -0.05000708
  65        -0.00215019
  66        -0.21608175
  67        -0.02295174
  68         0.00657484
  69         0.32397414
  70        -0.38691513
  71         0.18539653
  72         0.88559774
  73        -0.04144275
  74         0.75258272
  75         0.38424633
  76         0.00535705
  77         0.01926543
  78         0.05073892
  79         0.00168323
  80        -0.21667714
  81         0.00726989
  82        -0.00196624
  83         0.29528436
  84         0.40954464
  85         1.38903883
  86        -0.31260312
  87         0.64787283
  88        -0.46306118
  89        -0.02522717
  90         1.38903687
  91        -0.31260202
  92         0.63098215
  93         0.48636116
  94         0.01067274
  95        -1.38903683
  96         0.31260196
  97         0.64787157
  98        -0.46305964
  99        -0.02525334
 100        -1.38903873
 101         0.31260314
 102         0.63098314
 103         0.48636129
 104         0.01068386
Sym=    95a  
Ene=     2.8307
Spin= Alpha
Occup=    0.00000
   1        -0.00000003
   2        -0.00000011
   3         0.00000033
   4         0.70019797
   5         0.01275891
   6        -0.00800645
   7        -1.93296386
   8        -0.03522024
   9         0.02204857
  10        -0.00024704
  11         0.01269255
  12        -0.00356437
  13        -0.01209450
  14         0.33576671
  15        -0.31768289
  16        -1.20160501
  17         2.62472293
  18        -0.59385976
  19         0.09684388
  20         0.01081926
  21        -0.19763423
  22        -1.94490943
  23        -0.07073659
  24        -0.28617033
  25        -0.00333511
  26         0.00059099
  27         0.41318785
  28         0.20377275
  29         0.31768260
  30         1.20160290
  31        -2.62472142
  32         0.59002942
  33         0.11841653
  34        -0.00268929
  35         0.26668123
  36        -1.93644703
  37        -0.07610707
  38         0.28588387
  39         0.01765949
  40        -0.00472090
  41        -0.42676864
  42         0.17308863
  43        -0.00000004
  44        -0.00000016
  45         0.00000033
  46        -0.70019965
  47        -0.01275949
  48         0.00802081
  49         1.93296507
  50         0.03522091
  51        -0.02206605
  52        -0.00024911
  53         0.01286173
  54        -0.00354167
  55        -0.01209153
  56         0.33575814
  57        -0.31768265
  58        -1.20160308
  59         2.62472126
  60         0.59385866
  61        -0.09684452
  62        -0.01083120
  63         0.19763532
  64         1.94490896
  65         0.07076729
  66        -0.28616584
  67        -0.00325785
  68         0.00069826
  69         0.41319467
  70         0.20377186
  71         0.31768282
  72         1.20160467
  73        -2.62472299
  74        -0.59003040
  75        -0.11841564
  76         0.00269426
  77        -0.26668038
  78         1.93644618
  79         0.07611091
  80         0.28589045
  81         0.01760488
  82        -0.00462595
  83        -0.42676379
  84         0.17309123
  85        -0.51058653
  86         0.31708573
  87        -0.03221947
  88         0.46959617
  89         0.01805234
  90         0.51058783
  91        -0.31708667
  92         0.01549660
  93         0.47046651
  94         0.01751337
  95        -0.51058762
  96         0.31708660
  97         0.03221947
  98        -0.46959693
  99        -0.01805875
 100         0.51058694
 101        -0.31708585
 102        -0.01549656
 103        -0.47046588
 104        -0.01750486
Sym=    96a  
Ene=     2.8488
Spin= Alpha
Occup=    0.00000
   1        -0.00029418
   2        -0.00175850
   3        -0.00278861
   4        -0.00010363
   5         0.00144199
   6         0.00005554
   7         0.00021014
   8         0.00166073
   9         0.00005994
  10         0.01707935
  11        -0.80066979
  12        -0.01501423
  13        -0.01029762
  14         0.02991419
  15        -0.00017734
  16        -0.00011881
  17         0.00789625
  18        -0.00019812
  19         0.00246000
  20        -0.02667362
  21         0.00049634
  22        -0.00418580
  23         0.02741550
  24        -0.02635192
  25        -0.32183469
  26        -0.48817455
  27        -0.02083556
  28         0.00751360
  29         0.00014480
  30        -0.00002476
  31        -0.00784743
  32         0.00020297
  33         0.00044451
  34         0.02678433
  35        -0.00039261
  36        -0.00210319
  37        -0.02765372
  38        -0.03691207
  39         0.33866402
  40        -0.47590330
  41        -0.01543033
  42        -0.01734507
  43         0.00026946
  44         0.00166348
  45         0.00298411
  46         0.00003416
  47         0.00144612
  48         0.00005407
  49        -0.00021272
  50         0.00171643
  51         0.00006721
  52        -0.01712931
  53         0.80066928
  54         0.01501987
  55         0.01026554
  56        -0.02999833
  57         0.00022123
  58         0.00026594
  59        -0.00845839
  60        -0.00036568
  61         0.00249707
  62        -0.02667175
  63         0.00045268
  64        -0.00459380
  65         0.02740105
  66         0.02643898
  67         0.32183916
  68         0.48817426
  69         0.02071693
  70        -0.00751581
  71        -0.00023209
  72        -0.00032297
  73         0.00837351
  74         0.00029864
  75         0.00043777
  76         0.02678143
  77        -0.00029184
  78        -0.00252674
  79        -0.02767048
  80         0.03687200
  81        -0.33866668
  82         0.47590400
  83         0.01547884
  84         0.01728041
  85        -0.00181656
  86         0.00045842
  87        -0.00043027
  88         0.00201012
  89        -0.01619527
  90         0.00194400
  91        -0.00049682
  92         0.00043081
  93         0.00084578
  94         0.01630260
  95         0.00204693
  96        -0.00056168
  97        -0.00048979
  98         0.00214035
  99        -0.01618956
 100        -0.00195523
 101         0.00053043
 102         0.00038761
 103         0.00091607
 104         0.01630589
Sym=    97a  
Ene=     2.8542
Spin= Alpha
Occup=    0.00000
   1         0.08978941
   2         0.56169420
   3         1.06041980
   4         0.00881949
   5        -0.49579415
   6        -0.01876923
   7         0.01079366
   8        -0.60670701
   9        -0.02295357
  10        -0.43920607
  11        -0.01166620
  12         0.02810211
  13         0.01382845
  14         0.00091475
  15         0.06592137
  16         0.05136043
  17        -2.86782891
  18        -0.01546346
  19        -0.50421726
  20        -0.01884546
  21        -0.05715831
  22         1.18104198
  23         0.04519081
  24         0.45072198
  25        -0.00235018
  26        -0.00558571
  27        -0.52284337
  28        -0.45691319
  29        -0.06592067
  30        -0.05135734
  31         2.86782702
  32         0.03338764
  33        -0.50333241
  34        -0.01928214
  35         0.01511385
  36         1.18236554
  37         0.04421134
  38        -0.45025033
  39        -0.03086894
  40         0.01219172
  41         0.55423790
  42        -0.41751263
  43        -0.08979110
  44        -0.56170081
  45        -1.06041431
  46         0.00881978
  47        -0.49579528
  48        -0.01877743
  49         0.01079227
  50        -0.60670561
  51        -0.02296476
  52         0.43920362
  53         0.01170412
  54        -0.02812631
  55        -0.01382935
  56        -0.00091674
  57        -0.06592040
  58        -0.05135629
  59         2.86782490
  60        -0.01546439
  61        -0.50421785
  62        -0.01884898
  63        -0.05715706
  64         1.18104093
  65         0.04520968
  66        -0.45072164
  67         0.00234931
  68         0.00559423
  69         0.52284474
  70         0.45691286
  71         0.06592120
  72         0.05135982
  73        -2.86782729
  74         0.03338766
  75        -0.50333168
  76        -0.01927984
  77         0.01511536
  78         1.18236298
  79         0.04422067
  80         0.45024858
  81         0.03090092
  82        -0.01219855
  83        -0.55423624
  84         0.41751172
  85         0.67784563
  86        -0.18415674
  87         0.09258667
  88        -0.51283804
  89        -0.02045090
  90        -0.67784684
  91         0.18415722
  92        -0.07428666
  93        -0.51588228
  94        -0.01847224
  95        -0.67784681
  96         0.18415708
  97         0.09258696
  98        -0.51283894
  99        -0.02044515
 100         0.67784488
 101        -0.18415644
 102        -0.07428637
 103        -0.51588110
 104        -0.01846867
Sym=    98a  
Ene=     2.8768
Spin= Alpha
Occup=    0.00000
   1        -0.37542891
   2        -1.44824432
   3         2.83753193
   4        -0.00064527
   5         0.03626840
   6         0.00137241
   7         0.01575613
   8        -0.88570482
   9        -0.03352168
  10        -0.54355018
  11        -0.00907371
  12         0.04360729
  13        -0.21327344
  14        -0.00727619
  15        -0.20201854
  16        -0.97024600
  17        -0.39556160
  18         0.21995069
  19        -0.46235139
  20        -0.02003859
  21        -0.21953162
  22         0.06793132
  23         0.00520921
  24         0.26674851
  25         0.02089819
  26        -0.00900022
  27        -0.32025802
  28         0.30337527
  29        -0.20201853
  30        -0.97024485
  31        -0.39555541
  32         0.20336366
  33         0.47006224
  34         0.01525369
  35        -0.21697046
  36        -0.07588424
  37        -0.00022684
  38         0.26721780
  39        -0.00309006
  40        -0.00226279
  41        -0.29758686
  42        -0.32602952
  43        -0.37542731
  44        -1.44823800
  45         2.83751886
  46         0.00064524
  47        -0.03626760
  48        -0.00137241
  49        -0.01575608
  50         0.88570165
  51         0.03352607
  52        -0.54354690
  53        -0.00915310
  54         0.04361321
  55        -0.21327486
  56        -0.00727320
  57        -0.20201850
  58        -0.97024470
  59        -0.39555546
  60        -0.21995063
  61         0.46235094
  62         0.02003632
  63         0.21952862
  64        -0.06793094
  65        -0.00521318
  66         0.26674543
  67         0.02085781
  68        -0.00903738
  69        -0.32026021
  70         0.30337564
  71        -0.20201859
  72        -0.97024621
  73        -0.39556154
  74        -0.20336373
  75        -0.47006337
  76        -0.01523850
  77         0.21697344
  78         0.07588448
  79         0.00023039
  80         0.26721623
  81        -0.00304036
  82        -0.00229434
  83        -0.29758711
  84        -0.32603255
  85         1.09084944
  86        -0.34738421
  87         0.49756419
  88        -0.31158425
  89        -0.01772366
  90         1.09084718
  91        -0.34738332
  92         0.48615786
  93         0.32950735
  94         0.00652902
  95         1.09084730
  96        -0.34738333
  97        -0.49756235
  98         0.31158416
  99         0.01772783
 100         1.09084953
 101        -0.34738425
 102        -0.48615966
 103        -0.32950771
 104        -0.00652052
Sym=    99a  
Ene=     3.1215
Spin= Alpha
Occup=    0.00000
   1         0.00000020
   2         0.00000077
   3        -0.00000175
   4         0.19508381
   5         0.00355475
   6        -0.00223047
   7         1.11038236
   8         0.02023333
   9        -0.01268839
  10         0.00072238
  11        -0.03667743
  12         0.01035197
  13         0.03471140
  14        -0.96360947
  15         0.22515302
  16         1.00097463
  17        -0.01196220
  18         0.71168317
  19         0.14996628
  20        -0.00296518
  21        -0.12123945
  22         0.32470684
  23         0.01369023
  24        -0.01337064
  25         0.00609542
  26        -0.01276102
  27         0.27844094
  28         0.25869892
  29         0.22515446
  30         1.00097702
  31        -0.01199553
  32         0.71655542
  33        -0.12393171
  34        -0.01335241
  35        -0.10962168
  36        -0.32892206
  37        -0.01105626
  38        -0.01299270
  39        -0.01282556
  40        -0.00743008
  41         0.29632339
  42        -0.23797350
  43        -0.00000018
  44        -0.00000068
  45         0.00000155
  46         0.19507888
  47         0.00355478
  48        -0.00223288
  49         1.11037318
  50         0.02023337
  51        -0.01269297
  52        -0.00072279
  53         0.03668233
  54        -0.01035688
  55        -0.03471134
  56         0.96359847
  57        -0.22515464
  58        -1.00097790
  59         0.01199429
  60         0.71168344
  61         0.14995661
  62        -0.00297072
  63        -0.12124867
  64         0.32471508
  65         0.01368897
  66         0.01336494
  67        -0.00609226
  68         0.01275806
  69        -0.27843260
  70        -0.25869694
  71        -0.22515292
  72        -1.00097405
  73         0.01196369
  74         0.71655540
  75        -0.12394169
  76        -0.01334547
  77        -0.10961275
  78        -0.32891369
  79        -0.01105244
  80         0.01299799
  81         0.01281903
  82         0.00742620
  83        -0.29633240
  84         0.23797508
  85         0.07658108
  86        -0.00137058
  87         0.14714096
  88         0.04662333
  89        -0.00002097
  90         0.07659216
  91        -0.00137622
  92         0.14870656
  93        -0.04122721
  94        -0.00335147
  95        -0.07659155
  96         0.00137591
  97         0.14714364
  98         0.04661792
  99        -0.00002175
 100        -0.07658145
 101         0.00137079
 102         0.14870405
 103        -0.04123288
 104        -0.00335220
Sym=   100a  
Ene=     3.1594
Spin= Alpha
Occup=    0.00000
   1        -0.19660807
   2        -0.69328211
   3         1.94365567
   4         0.00012098
   5        -0.00681762
   6        -0.00025957
   7         0.00325553
   8        -0.18302168
   9        -0.00692329
  10        -0.32371389
  11        -0.01549116
  12        -0.00972615
  13         0.80947941
  14         0.02940218
  15         0.05198428
  16         0.11860240
  17        -0.62469858
  18        -0.37535255
  19        -0.52560664
  20        -0.01522459
  21        -0.05945132
  22         0.07531879
  23         0.00354580
  24         0.15986721
  25        -0.00906957
  26        -0.02399685
  27         0.42222830
  28        -0.19448401
  29         0.05199616
  30         0.11866460
  31        -0.62459292
  32        -0.39379587
  33         0.51158866
  34         0.02401989
  35        -0.05668256
  36        -0.07741493
  37        -0.00221813
  38         0.15952914
  39         0.00688103
  40        -0.02850257
  41         0.40712944
  42         0.22414166
  43        -0.19657450
  44        -0.69315269
  45         1.94338146
  46        -0.00012111
  47         0.00682758
  48         0.00025965
  49        -0.00325407
  50         0.18295621
  51         0.00692181
  52        -0.32368605
  53        -0.01547663
  54        -0.00973018
  55         0.80946090
  56         0.02940115
  57         0.05199601
  58         0.11866400
  59        -0.62459244
  60         0.37534606
  61         0.52560370
  62         0.01523277
  63         0.05939954
  64        -0.07529884
  65        -0.00354954
  66         0.15984491
  67        -0.00906265
  68        -0.02397532
  69         0.42221119
  70        -0.19450915
  71         0.05198427
  72         0.11860236
  73        -0.62469893
  74         0.39380288
  75        -0.51159105
  76        -0.02402235
  77         0.05673350
  78         0.07743619
  79         0.00222303
  80         0.15955443
  81         0.00686555
  82        -0.02848001
  83         0.40714973
  84         0.22411887
  85        -0.17945274
  86         0.11178031
  87         0.07656444
  88         0.25355090
  89         0.00861253
  90        -0.17949439
  91         0.11180272
  92         0.08550450
  93        -0.25059632
  94        -0.01047074
  95        -0.17949545
  96         0.11180315
  97        -0.07653576
  98        -0.25354931
  99        -0.00861188
 100        -0.17945170
 101         0.11177989
 102        -0.08553319
 103         0.25059702
 104         0.01046766
Sym=   101a  
Ene=     3.1795
Spin= Alpha
Occup=    0.00000
   1         0.57924359
   2         2.23086714
   3        -4.71950315
   4         0.00311364
   5        -0.17503114
   6        -0.00662670
   7        -0.02007366
   8         1.12840969
   9         0.04270884
  10         0.49149267
  11         0.01347993
  12        -0.02076316
  13        -0.29680055
  14        -0.01105905
  15         0.21026981
  16         1.08752312
  17         1.79895311
  18         0.12409412
  19         0.08354264
  20         0.00164050
  21         0.86855423
  22        -0.35138667
  23        -0.02372833
  24        -0.39555087
  25        -0.02212668
  26         0.04181689
  27        -0.27846664
  28        -0.45715860
  29        -0.21026815
  30        -1.08752188
  31        -1.79899017
  32        -0.12700779
  33         0.07899826
  34         0.00454157
  35        -0.85549773
  36        -0.38280689
  37        -0.00403620
  38         0.39622466
  39        -0.01185665
  40        -0.03230071
  41         0.31067977
  42        -0.43651862
  43        -0.57925667
  44        -2.23091327
  45         4.71963008
  46         0.00311349
  47        -0.17503056
  48        -0.00662841
  49        -0.02007388
  50         1.12842323
  51         0.04271638
  52        -0.49151323
  53        -0.01348160
  54         0.02076824
  55         0.29684770
  56         0.01106068
  57        -0.21026806
  58        -1.08752142
  59        -1.79898980
  60         0.12411536
  61         0.08357578
  62         0.00162548
  63         0.86855862
  64        -0.35139221
  65        -0.02372938
  66         0.39556013
  67         0.02213480
  68        -0.04182761
  69         0.27849069
  70         0.45714802
  71         0.21026993
  72         1.08752365
  73         1.79895261
  74        -0.12698540
  75         0.07896729
  76         0.00451546
  77        -0.85549336
  78        -0.38280081
  79        -0.00403806
  80        -0.39621502
  81         0.01185682
  82         0.03229081
  83        -0.31065685
  84         0.43653053
  85        -0.77538715
  86         0.40895527
  87        -0.50409538
  88        -0.01834038
  89         0.00540818
  90         0.77538024
  91        -0.40895033
  92         0.50442741
  93         0.00002219
  94        -0.00609823
  95         0.77538036
  96        -0.40895028
  97        -0.50410147
  98        -0.01835392
  99         0.00540126
 100        -0.77538690
 101         0.40895520
 102         0.50442081
 103         0.00003594
 104        -0.00610706
Sym=   102a  
Ene=     3.2199
Spin= Alpha
Occup=    0.00000
   1         0.00000009
   2         0.00000032
   3        -0.00000085
   4        -0.45089396
   5        -0.00821616
   6         0.00515618
   7        -0.98308848
   8        -0.01791349
   9         0.01123802
  10        -0.00071532
  11         0.03632045
  12        -0.01025588
  13        -0.03437483
  14         0.95424895
  15         0.00500009
  16        -0.12686650
  17        -1.23402997
  18        -0.36271868
  19        -0.69881218
  20        -0.02189367
  21        -0.45357815
  22         0.10631478
  23         0.00948575
  24         0.20859072
  25        -0.00110678
  26         0.01342345
  27        -0.60817785
  28        -0.34089963
  29        -0.00499620
  30         0.12688321
  31         1.23402830
  32         0.38734805
  33        -0.68514613
  34        -0.03048345
  35         0.44950074
  36         0.12276608
  37        -0.00082640
  38        -0.20811483
  39        -0.02313855
  40        -0.00660068
  41         0.63112285
  42        -0.29594819
  43         0.00000000
  44        -0.00000002
  45        -0.00000002
  46         0.45089794
  47         0.00821643
  48        -0.00516146
  49         0.98310199
  50         0.01791432
  51        -0.01124911
  52        -0.00071668
  53         0.03633305
  54        -0.01027117
  55        -0.03437565
  56         0.95426108
  57         0.00499606
  58        -0.12688375
  59        -1.23402804
  60         0.36272865
  61         0.69881399
  62         0.02189798
  63         0.45357593
  64        -0.10631079
  65        -0.00948826
  66         0.20859155
  67        -0.00110660
  68         0.01343252
  69        -0.60818260
  70        -0.34090179
  71        -0.00500008
  72         0.12686664
  73         1.23403053
  74        -0.38733827
  75         0.68514468
  76         0.03047911
  77        -0.44950307
  78        -0.12276987
  79         0.00082039
  80        -0.20811450
  81        -0.02314196
  82        -0.00659836
  83         0.63111753
  84        -0.29594596
  85         0.27513905
  86        -0.14233572
  87        -0.01900493
  88        -0.28410629
  89        -0.01045429
  90        -0.27513957
  91         0.14233615
  92         0.02909897
  93        -0.28323066
  94        -0.01101400
  95         0.27513977
  96        -0.14233626
  97         0.01900650
  98         0.28410769
  99         0.01045539
 100        -0.27513914
 101         0.14233575
 102        -0.02909721
 103         0.28322939
 104         0.01101067
Sym=   103a  
Ene=     3.2836
Spin= Alpha
Occup=    0.00000
   1        -0.00000011
   2        -0.00000041
   3         0.00000082
   4         0.56729698
   5         0.01033693
   6        -0.00647737
   7        -0.13335137
   8        -0.00243030
   9         0.00153178
  10         0.00005634
  11        -0.00294439
  12         0.00080542
  13         0.00277820
  14        -0.07714290
  15        -0.00364110
  16        -0.15397266
  17        -1.14269866
  18         0.56845749
  19        -0.31099913
  20        -0.01856925
  21        -0.14684851
  22         0.38776429
  23         0.01636206
  24         0.31926573
  25         0.05128349
  26        -0.02411159
  27        -0.26699453
  28         1.09987144
  29         0.00364223
  30         0.15397749
  31         1.14269798
  32        -0.55702696
  33        -0.33150638
  34        -0.00574471
  35         0.13296133
  36         0.39286140
  37         0.01316821
  38        -0.32092245
  39         0.03305133
  40         0.00035868
  41         0.18715083
  42         1.11670811
  43        -0.00000013
  44        -0.00000046
  45         0.00000093
  46        -0.56729768
  47        -0.01033721
  48         0.00648506
  49         0.13335622
  50         0.00243035
  51        -0.00152981
  52         0.00005649
  53        -0.00295117
  54         0.00080588
  55         0.00277796
  56        -0.07713861
  57        -0.00364224
  58        -0.15397759
  59        -1.14269839
  60        -0.56845646
  61         0.31100025
  62         0.01856515
  63         0.14684809
  64        -0.38776286
  65        -0.01636664
  66         0.31926526
  67         0.05129351
  68        -0.02411843
  69        -0.26699526
  70         1.09987106
  71         0.00364108
  72         0.15397252
  73         1.14269836
  74         0.55702796
  75         0.33150607
  76         0.00572930
  77        -0.13296175
  78        -0.39286256
  79        -0.01317277
  80        -0.32092296
  81         0.03304650
  82         0.00034623
  83         0.18714979
  84         1.11670798
  85         1.69804864
  86        -0.67806386
  87         0.68219120
  88        -0.21811053
  89        -0.01644657
  90        -1.69805081
  91         0.67806471
  92        -0.67399187
  93        -0.24282109
  94        -0.00100602
  95         1.69805084
  96        -0.67806469
  97        -0.68219158
  98         0.21811184
  99         0.01643338
 100        -1.69804863
 101         0.67806388
 102         0.67399133
 103         0.24282137
 104         0.00097764
Sym=   104a  
Ene=     3.7512
Spin= Alpha
Occup=    0.00000
   1         0.10412429
   2         0.51724063
   3         0.54359926
   4         0.00189491
   5        -0.10652992
   6        -0.00403892
   7        -0.00344920
   8         0.19388865
   9         0.00733269
  10        -0.11000455
  11        -0.01251310
  12        -0.02905268
  13         0.95076431
  14         0.03433064
  15        -0.05093260
  16        -0.24555678
  17         0.33124233
  18        -0.36779977
  19         0.27490008
  20         0.01477391
  21        -0.27225599
  22        -0.26837274
  23        -0.00679801
  24         0.01451528
  25        -0.04615036
  26        -0.01107289
  27         0.60419481
  28        -1.04099826
  29         0.05093274
  30         0.24555764
  31        -0.33124194
  32         0.35778620
  33         0.28811821
  34         0.00650951
  35         0.28162454
  36        -0.25827988
  37        -0.01311791
  38        -0.01292659
  39        -0.03461677
  40         0.03385797
  41        -0.52772925
  42        -1.08175165
  43        -0.10412467
  44        -0.51724221
  45        -0.54360281
  46         0.00189489
  47        -0.10652938
  48        -0.00403954
  49        -0.00344924
  50         0.19388888
  51         0.00733181
  52         0.11000530
  53         0.01253086
  54         0.02905827
  55        -0.95076712
  56        -0.03433132
  57         0.05093272
  58         0.24555758
  59        -0.33124164
  60        -0.36780211
  61         0.27489769
  62         0.01477528
  63        -0.27225577
  64        -0.26837200
  65        -0.00680036
  66        -0.01451530
  67         0.04616047
  68         0.01108114
  69        -0.60419499
  70         1.04099989
  71        -0.05093262
  72        -0.24555681
  73         0.33124248
  74         0.35778377
  75         0.28812051
  76         0.00650556
  77         0.28162479
  78        -0.25828031
  79        -0.01312232
  80         0.01292604
  81         0.03461142
  82        -0.03386287
  83         0.52772856
  84         1.08174974
  85        -1.27861154
  86         0.51559528
  87        -0.35685287
  88         0.23661629
  89         0.01320823
  90         1.27861342
  91        -0.51559609
  92         0.34820617
  93         0.24946266
  94         0.00519728
  95         1.27861342
  96        -0.51559610
  97        -0.35685305
  98         0.23661744
  99         0.01320044
 100        -1.27861147
 101         0.51559523
 102         0.34820583
 103         0.24946259
 104         0.00517655
