  10
  -264.33268032924900     
 N    -0.02512721     1.41250629     0.05345726
 C    -1.14480414     0.67812570     0.03937897
 C    -1.11994296    -0.71939354    -0.01348757
 N     0.02512721    -1.41250539    -0.05345693
 C     1.14480376    -0.67812573    -0.03938212
 C     1.11994346     0.71939295     0.01350053
 H    -2.09560518     1.22061056     0.07126938
 H    -2.05083315    -1.29616302    -0.02395274
 H     2.09560455    -1.22061101    -0.07126679
 H     2.05083367     1.29616319     0.02394003
